! Generated by Interconnect Studio
# GHZ S RI R 50
0.1 0.02037078454105751 0.02612580052578535 0.8076007140420287 -0.5427548920283182 0.04565912379203386 0.06216566420484704 -0.0110726050302823 -0.01468368673648487 0.8076007140420289 -0.5427548920283178 0.02037078454105734 0.02612580052578503 -0.01107260503028232 -0.01468368673648488 0.0456591237920339 0.06216566420484704 0.04565912379203391 0.06216566420484705 -0.01107260503028231 -0.01468368673648487 0.02037078454105751 0.02612580052578508 0.8076007140420286 -0.5427548920283178 -0.01107260503028232 -0.01468368673648485 0.0456591237920339 0.06216566420484704 0.8076007140420287 -0.5427548920283181 0.0203707845410574 0.02612580052578518
0.2 0.0501781382092788 0.01587137477888444 0.3672275625185544 -0.8830979468190714 0.1171796481512021 0.04499668384139791 -0.03069361664287202 -0.008153197531566349 0.3672275625185544 -0.8830979468190715 0.05017813820927908 0.01587137477888452 -0.03069361664287203 -0.008153197531566334 0.1171796481512021 0.04499668384139788 0.1171796481512021 0.0449966838413979 -0.03069361664287202 -0.008153197531566346 0.05017813820927897 0.0158713747788844 0.3672275625185544 -0.8830979468190714 -0.03069361664287203 -0.008153197531566351 0.1171796481512021 0.0449966838413979 0.3672275625185544 -0.8830979468190715 0.05017813820927902 0.01587137477888445
0.3 0.05071043117888274 -0.01481032889947915 -0.175581215083672 -0.9303367299808181 0.1286937756964808 -0.02549732715308899 -0.04008023106327296 0.01159899023789083 -0.1755812150836719 -0.9303367299808178 0.05071043117888308 -0.01481032889947919 -0.04008023106327296 0.01159899023789085 0.1286937756964808 -0.02549732715308899 0.1286937756964808 -0.025497327153089 -0.04008023106327298 0.01159899023789086 0.05071043117888274 -0.01481032889947911 -0.1755812150836719 -0.9303367299808178 -0.04008023106327298 0.01159899023789085 0.1286937756964808 -0.02549732715308899 -0.1755812150836719 -0.9303367299808178 0.05071043117888274 -0.01481032889947914
0.4 0.02190386045069997 -0.02603653566077809 -0.6570888943414839 -0.677156653218928 0.06888091450332307 -0.06293131952998093 -0.03891059233555949 0.03747994607847983 -0.6570888943414838 -0.677156653218928 0.0219038604507002 -0.02603653566077802 -0.03891059233555946 0.03747994607847981 0.06888091450332312 -0.06293131952998095 0.06888091450332308 -0.06293131952998092 -0.03891059233555948 0.03747994607847981 0.0219038604507002 -0.02603653566077816 -0.6570888943414839 -0.6771566532189282 -0.03891059233555945 0.03747994607847978 0.06888091450332313 -0.06293131952998096 -0.6570888943414838 -0.6771566532189282 0.02190386045070025 -0.02603653566077798
0.5 0.00133840496068266 -0.001816869857605791 -0.9193964307832514 -0.1958968605304844 0.0120594056266541 -0.02166475256232071 -0.01831201969736977 0.06864583704207672 -0.9193964307832513 -0.1958968605304848 0.001338404960682882 -0.001816869857605791 -0.01831201969736975 0.06864583704207661 0.01205940562665414 -0.02166475256232092 0.01205940562665403 -0.0216647525623208 -0.01831201969736965 0.0686458370420765 0.00133840496068266 -0.001816869857604847 -0.9193964307832514 -0.1958968605304843 -0.01831201969736955 0.0686458370420765 0.01205940562665419 -0.02166475256232088 -0.9193964307832514 -0.1958968605304846 0.00133840496068266 -0.001816869857605236
0.6 0.01833440364097166 0.02562151335053879 -0.8635502974165906 0.3470552268015844 0.02956991668323943 0.04530349590503598 0.03059844075256598 0.08270022109024941 -0.8635502974165906 0.3470552268015845 0.01833440364097155 0.0256215133505389 0.03059844075256599 0.08270022109024938 0.02956991668323944 0.04530349590503599 0.02956991668323939 0.04530349590503597 0.03059844075256598 0.08270022109024937 0.01833440364097166 0.02562151335053892 -0.8635502974165905 0.3470552268015846 0.03059844075256599 0.08270022109024941 0.0295699166832394 0.045303495905036 -0.8635502974165905 0.3470552268015845 0.0183344036409715 0.02562151335053879
0.7 0.0495137480400541 0.01818104725196218 -0.5200109142852247 0.7567878054030428 0.09639927188467329 0.05349954879026346 0.08369423540456311 0.05627714329211837 -0.5200109142852247 0.7567878054030427 0.04951374804005415 0.01818104725196217 0.0836942354045631 0.05627714329211837 0.09639927188467326 0.05349954879026346 0.09639927188467329 0.05349954879026347 0.08369423540456311 0.05627714329211839 0.04951374804005404 0.01818104725196206 -0.5200109142852247 0.7567878054030426 0.08369423540456314 0.05627714329211836 0.09639927188467329 0.05349954879026347 -0.5200109142852246 0.7567878054030426 0.04951374804005404 0.01818104725196219
0.8 0.05313006470877191 -0.01338586672855665 -0.01868019117876651 0.9091501675813847 0.1286049312327769 -0.003575808647648346 0.1102909434510896 0.0005386345202370241 -0.01868019117876651 0.9091501675813848 0.05313006470877202 -0.01338586672855663 0.1102909434510895 0.0005386345202369903 0.128604931232777 -0.003575808647648336 0.128604931232777 -0.003575808647648317 0.1102909434510895 0.0005386345202370254 0.05313006470877224 -0.01338586672855664 -0.01868019117876651 0.9091501675813848 0.1102909434510896 0.0005386345202370328 0.1286049312327769 -0.003575808647648337 -0.01868019117876651 0.9091501675813846 0.05313006470877207 -0.01338586672855664
0.9 0.02451666185628731 -0.02823696570937356 0.4831317736474128 0.7664082961386325 0.08890983818498024 -0.05457225613474652 0.1036914572826406 -0.06343584642635214 0.4831317736474127 0.7664082961386326 0.02451666185628737 -0.02823696570937344 0.1036914572826406 -0.06343584642635211 0.08890983818498024 -0.05457225613474656 0.08890983818498026 -0.05457225613474655 0.1036914572826406 -0.06343584642635215 0.02451666185628726 -0.02823696570937331 0.4831317736474126 0.7664082961386325 0.1036914572826406 -0.06343584642635215 0.08890983818498024 -0.0545722561347466 0.4831317736474127 0.7664082961386325 0.02451666185628731 -0.02823696570937342
1 -0.0001975024393410796 -0.005724942319944012 0.8250938641127918 0.3676634789065461 0.02710052195773226 -0.03700837036928024 0.06065028092930477 -0.1231495871562006 0.8250938641127921 0.3676634789065463 -0.0001975024393410796 -0.005724942319943999 0.06065028092930464 -0.1231495871562006 0.02710052195773232 -0.03700837036928013 0.02710052195773225 -0.03700837036928023 0.06065028092930454 -0.1231495871562007 -0.0001975024393410796 -0.005724942319943971 0.8250938641127923 0.3676634789065466 0.06065028092930456 -0.1231495871562006 0.02710052195773227 -0.0370083703692802 0.8250938641127923 0.3676634789065464 -0.0001975024393410796 -0.005724942319943888
1.1 0.01343964362926633 0.02598352878940577 0.8823272682223856 -0.1540150784795844 0.0210501169458972 0.02611374883395373 -0.0216043855763153 -0.1522844582391846 0.8823272682223855 -0.1540150784795843 0.01343964362926658 0.0259835287894055 -0.02160438557631533 -0.1522844582391849 0.02105011694589717 0.02611374883395393 0.02105011694589742 0.02611374883395395 -0.02160438557631553 -0.1522844582391847 0.01343964362926664 0.02598352878940501 0.8823272682223854 -0.1540150784795841 -0.02160438557631569 -0.1522844582391848 0.02105011694589767 0.02611374883395403 0.8823272682223856 -0.1540150784795845 0.01343964362926636 0.02598352878940534
1.2 0.04820175164418988 0.02339775274676712 0.6403651796409988 -0.6095334178699771 0.07605824832824783 0.05407883172855388 -0.1135194450725236 -0.1214514786849142 0.6403651796409988 -0.6095334178699771 0.04820175164418994 0.02339775274676704 -0.1135194450725236 -0.1214514786849142 0.0760582483282478 0.05407883172855391 0.07605824832824783 0.05407883172855387 -0.1135194450725236 -0.1214514786849142 0.04820175164418994 0.02339775274676727 0.640365179640999 -0.6095334178699773 -0.1135194450725236 -0.1214514786849142 0.07605824832824777 0.05407883172855389 0.6403651796409989 -0.6095334178699772 0.04820175164418994 0.02339775274676702
1.3 0.05781436884904062 -0.01007140537133069 0.1972673414926761 -0.8519346273204578 0.121379945925982 0.01491934569440683 -0.1705327953914283 -0.03947951391430705 0.1972673414926762 -0.851934627320458 0.05781436884904073 -0.01007140537133063 -0.1705327953914283 -0.03947951391430704 0.121379945925982 0.01491934569440688 0.121379945925982 0.01491934569440685 -0.1705327953914283 -0.03947951391430704 0.05781436884904079 -0.01007140537133056 0.1972673414926762 -0.8519346273204582 -0.1705327953914283 -0.03947951391430708 0.121379945925982 0.01491934569440686 0.1972673414926761 -0.851934627320458 0.05781436884904068 -0.01007140537133063
1.4 0.02981710088570561 -0.03151173323691445 -0.3023933349470131 -0.8155512354545709 0.1029701169880579 -0.04090992968484643 -0.1744171373787002 0.0618513507450003 -0.3023933349470133 -0.8155512354545711 0.02981710088570577 -0.03151173323691464 -0.1744171373787002 0.06185135074500031 0.1029701169880578 -0.04090992968484647 0.1029701169880578 -0.0409099296848464 -0.1744171373787001 0.06185135074500031 0.02981710088570583 -0.03151173323691463 -0.3023933349470132 -0.8155512354545711 -0.1744171373787002 0.0618513507450003 0.1029701169880578 -0.04090992968484645 -0.3023933349470133 -0.8155512354545711 0.02981710088570588 -0.03151173323691467
1.5 -0.001327724504462446 -0.01255270810649067 -0.7014810834471141 -0.5091024553410188 0.0448469993159796 -0.04479001135512721 -0.1223883720065322 0.1575104949989213 -0.7014810834471141 -0.5091024553410189 -0.001327724504462446 -0.01255270810649096 -0.1223883720065322 0.1575104949989214 0.0448469993159796 -0.04479001135512708 0.04484699931597977 -0.04479001135512709 -0.1223883720065322 0.1575104949989214 -0.001327724504462335 -0.01255270810649112 -0.7014810834471139 -0.5091024553410188 -0.1223883720065322 0.1575104949989214 0.0448469993159797 -0.04479001135512714 -0.701481083447114 -0.5091024553410187 -0.001327724504462446 -0.01255270810649087
1.6 0.005995029398557283 0.02450881594110845 -0.8593202630657977 -0.03111259371113878 0.02044020532545618 0.007199917855301136 -0.0148204254919815 0.214970756159284 -0.8593202630657975 -0.03111259371113875 0.00599502939855695 0.02450881594110848 -0.01482042549198139 0.2149707561592844 0.02044020532545637 0.007199917855301635 0.02044020532545626 0.00719991785530108 -0.01482042549198138 0.2149707561592837 0.005995029398557339 0.02450881594110836 -0.8593202630657976 -0.03111259371113877 -0.01482042549198152 0.2149707561592837 0.02044020532545607 0.007199917855300969 -0.8593202630657972 -0.03111259371113881 0.005995029398557783 0.02450881594110834
1.7 0.04399742103920984 0.03022898545241383 -0.7224662602605301 0.44559865106397 0.05891674812872618 0.04767003576549318 0.1163152523384565 0.1959558691330918 -0.7224662602605303 0.4455986510639702 0.04399742103920973 0.03022898545241394 0.1163152523384566 0.1959558691330917 0.05891674812872622 0.04767003576549315 0.05891674812872608 0.04767003576549315 0.1163152523384565 0.1959558691330917 0.04399742103920989 0.03022898545241388 -0.7224662602605302 0.4455986510639701 0.1163152523384565 0.1959558691330918 0.05891674812872612 0.04767003576549317 -0.7224662602605303 0.4455986510639703 0.04399742103920989 0.03022898545241401
1.8 0.06275172428900344 -0.003400401827140836 -0.353047408699707 0.7606149037078687 0.1091473815825317 0.02781527119191292 0.2135253633215536 0.1008759442291223 -0.353047408699707 0.7606149037078687 0.06275172428900322 -0.003400401827140898 0.2135253633215536 0.1008759442291223 0.1091473815825317 0.02781527119191295 0.1091473815825317 0.0278152711919129 0.2135253633215536 0.1008759442291222 0.06275172428900316 -0.003400401827140988 -0.353047408699707 0.7606149037078688 0.2135253633215536 0.1008759442291222 0.1091473815825317 0.02781527119191289 -0.3530474086997071 0.7606149037078688 0.06275172428900311 -0.003400401827140909
1.9 0.03825991476477741 -0.03350213891758286 0.122772584140886 0.8234107871756843 0.1099510831241373 -0.02491248637927943 0.2426658486633791 -0.03267549704306941 0.1227725841408859 0.8234107871756843 0.03825991476477747 -0.03350213891758289 0.242665848663379 -0.03267549704306941 0.1099510831241373 -0.02491248637927952 0.1099510831241373 -0.02491248637927945 0.2426658486633791 -0.03267549704306943 0.03825991476477741 -0.03350213891758285 0.1227725841408859 0.8234107871756842 0.242665848663379 -0.03267549704306941 0.1099510831241373 -0.02491248637927944 0.1227725841408859 0.8234107871756842 0.03825991476477747 -0.0335021389175829
2 0.0002326600725631733 -0.02167441016767906 0.5556568859047453 0.6147157248124872 0.06202079288349564 -0.04517742601601469 0.1962009186339634 -0.1672260273663091 0.5556568859047455 0.6147157248124869 0.0002326600725629513 -0.02167441016767898 0.1962009186339634 -0.1672260273663091 0.06202079288349562 -0.04517742601601468 0.06202079288349567 -0.04517742601601468 0.1962009186339634 -0.1672260273663091 0.0002326600725630623 -0.02167441016767902 0.5556568859047453 0.6147157248124868 0.1962009186339636 -0.1672260273663091 0.06202079288349556 -0.04517742601601464 0.5556568859047454 0.6147157248124868 0.0002326600725630068 -0.02167441016767892
2.1 -0.002425272807859979 0.01938120741594149 0.7975010780465487 0.1991863497609112 0.02632291684114613 -0.008453627522584689 0.07483480401408214 -0.2627111021301466 0.7975010780465488 0.1991863497609113 -0.002425272807860174 0.01938120741594142 0.07483480401408275 -0.2627111021301467 0.02632291684114541 -0.008453627522584106 0.02632291684114635 -0.008453627522584523 0.07483480401408238 -0.2627111021301466 -0.00242527280786009 0.01938120741594129 0.7975010780465485 0.1991863497609112 0.07483480401408224 -0.2627111021301467 0.02632291684114615 -0.008453627522584523 0.7975010780465487 0.199186349760911 -0.002425272807860118 0.01938120741594159
2.2 0.03587175850751212 0.03647355244401448 0.7635996886135226 -0.27414222916825 0.0471200037361994 0.03670614130200906 -0.09063131009014186 -0.2708722756253903 0.7635996886135228 -0.2741422291682499 0.03587175850751195 0.03647355244401444 -0.09063131009014191 -0.2708722756253904 0.04712000373619932 0.03670614130200898 0.04712000373619946 0.03670614130200875 -0.09063131009014205 -0.2708722756253902 0.03587175850751159 0.03647355244401454 0.7635996886135228 -0.27414222916825 -0.09063131009014205 -0.2708722756253905 0.04712000373619923 0.03670614130200906 0.7635996886135227 -0.2741422291682502 0.03587175850751168 0.03647355244401468
2.3 0.0655476266564658 0.006672526032892701 0.4791364749989285 -0.6413487686215422 0.09495555536075251 0.03417730572484826 -0.233225207026487 -0.178351498738806 0.4791364749989284 -0.6413487686215422 0.06554762665646569 0.006672526032892596 -0.233225207026487 -0.178351498738806 0.09495555536075252 0.03417730572484826 0.09495555536075254 0.0341773057248482 -0.233225207026487 -0.178351498738806 0.06554762665646574 0.006672526032892652 0.4791364749989284 -0.6413487686215422 -0.233225207026487 -0.178351498738806 0.09495555536075262 0.03417730572484821 0.4791364749989284 -0.6413487686215423 0.06554762665646574 0.006672526032892701
2.4 0.04888084364831397 -0.03207525940497184 0.04666909215408396 -0.7919566659497823 0.1102671788038833 -0.009739034489408237 -0.3002480605091126 -0.02194891059269419 0.04666909215408396 -0.7919566659497824 0.04888084364831402 -0.03207525940497184 -0.3002480605091126 -0.02194891059269418 0.1102671788038833 -0.009739034489408226 0.1102671788038833 -0.009739034489408195 -0.3002480605091126 -0.02194891059269417 0.04888084364831402 -0.03207525940497184 0.04666909215408396 -0.7919566659497823 -0.3002480605091126 -0.02194891059269419 0.1102671788038833 -0.009739034489408261 0.04666909215408396 -0.7919566659497823 0.04888084364831397 -0.03207525940497185
2.5 0.005961301242750294 -0.03127337010569076 -0.3968716771869129 -0.6813310002265736 0.0758754544907345 -0.03982350900405562 -0.2739609146013512 0.1500202728706938 -0.3968716771869128 -0.6813310002265736 0.005961301242750405 -0.03127337010569081 -0.2739609146013513 0.1500202728706939 0.07587545449073439 -0.03982350900405571 0.07587545449073443 -0.03982350900405565 -0.2739609146013511 0.1500202728706939 0.00596130124275035 -0.03127337010569074 -0.3968716771869129 -0.6813310002265736 -0.2739609146013511 0.1500202728706939 0.07587545449073438 -0.03982350900405572 -0.396871677186913 -0.6813310002265737 0.005961301242750405 -0.03127337010569087
2.6 -0.009473912111643279 0.0100356253213252 -0.7029661039304076 -0.342018337331684 0.03613264480607184 -0.01897432608150875 -0.152476976703714 0.2890581538097518 -0.7029661039304074 -0.3420183373316839 -0.009473912111643001 0.01003562532132529 -0.152476976703714 0.2890581538097517 0.03613264480607159 -0.01897432608150886 0.03613264480607167 -0.01897432608150884 -0.1524769767037139 0.2890581538097516 -0.009473912111643085 0.01003562532132549 -0.7029661039304075 -0.3420183373316837 -0.1524769767037139 0.289058153809752 0.03613264480607203 -0.01897432608150863 -0.7029661039304076 -0.342018337331684 -0.00947391211164314 0.01003562532132517
2.7 0.02425908869368104 0.0396974336747601 -0.7640389399603957 0.1053061350385686 0.04135221259345766 0.02420628895846705 0.03776545034547198 0.3372226460596455 -0.7640389399603955 0.1053061350385685 0.02425908869368143 0.03969743367476 0.03776545034547208 0.337222646059646 0.04135221259345778 0.02420628895846733 0.04135221259345759 0.02420628895846688 0.03776545034547193 0.3372226460596456 0.02425908869368126 0.03969743367476005 -0.7640389399603957 0.1053061350385685 0.03776545034547198 0.3372226460596456 0.04135221259345759 0.0242062889584668 -0.7640389399603957 0.1053061350385686 0.0242590886936811 0.0396974336747601
2.8 0.06415745944738255 0.01879038652693329 -0.5703903315534807 0.5024647726168543 0.0817667595645251 0.03460630354734602 0.2255905727006176 0.263964082120188 -0.5703903315534807 0.5024647726168544 0.0641574594473826 0.01879038652693335 0.2255905727006176 0.263964082120188 0.081766759564525 0.03460630354734595 0.08176675956452502 0.0346063035473461 0.2255905727006176 0.263964082120188 0.06415745944738271 0.01879038652693343 -0.5703903315534806 0.5024647726168544 0.2255905727006176 0.263964082120188 0.08176675956452502 0.03460630354734601 -0.5703903315534806 0.5024647726168543 0.0641574594473826 0.01879038652693336
2.9 0.05962838556668298 -0.02597704813446504 -0.1973993056047942 0.7255878569829823 0.1056684698250075 0.00218914771653652 0.3398265066866791 0.09776178419982452 -0.1973993056047942 0.7255878569829823 0.05962838556668298 -0.02597704813446508 0.3398265066866792 0.09776178419982459 0.1056684698250075 0.002189147716536444 0.1056684698250075 0.002189147716536541 0.3398265066866792 0.09776178419982456 0.05962838556668276 -0.02597704813446512 -0.1973993056047942 0.7255878569829821 0.3398265066866792 0.09776178419982454 0.1056684698250075 0.002189147716536478 -0.1973993056047942 0.7255878569829826 0.05962838556668298 -0.02597704813446503
3 0.01607465478489806 -0.03895116485462417 0.2349253492441192 0.7082822875048547 0.08490996405795509 -0.03128950584821981 0.3473972270414074 -0.1058957550331447 0.2349253492441192 0.7082822875048544 0.016074654784898 -0.03895116485462422 0.3473972270414074 -0.1058957550331446 0.08490996405795509 -0.03128950584821985 0.08490996405795503 -0.03128950584821986 0.3473972270414074 -0.1058957550331446 0.01607465478489806 -0.03895116485462424 0.2349253492441192 0.7082822875048547 0.3473972270414074 -0.1058957550331446 0.08490996405795512 -0.03128950584821978 0.2349253492441192 0.7082822875048546 0.01607465478489806 -0.03895116485462421
3.1 -0.01281708293011652 -0.002665500211022742 0.5837873838420187 0.4534505317094388 0.04697252228555469 -0.02400237980018413 0.2403655627570838 -0.2896919657046202 0.5837873838420188 0.4534505317094387 -0.01281708293011657 -0.002665500211022673 0.2403655627570837 -0.2896919657046203 0.04697252228555481 -0.02400237980018406 0.04697252228555472 -0.02400237980018412 0.2403655627570837 -0.2896919657046203 -0.01281708293011657 -0.002665500211022673 0.5837873838420187 0.4534505317094387 0.2403655627570838 -0.2896919657046202 0.04697252228555469 -0.02400237980018419 0.5837873838420188 0.4534505317094387 -0.01281708293011657 -0.002665500211022673
3.2 0.01092947340238515 0.03805133576807372 0.7269330064879079 0.0512201887002099 0.04079848628576811 0.01289088902728384 0.03835969731392128 -0.3869292648667755 0.7269330064879078 0.05122018870020989 0.0109294734023852 0.03805133576807376 0.03835969731392135 -0.3869292648667758 0.04079848628576804 0.01289088902728387 0.04079848628576804 0.01289088902728386 0.0383596973139213 -0.3869292648667756 0.01092947340238515 0.03805133576807385 0.726933006487908 0.05122018870020981 0.03835969731392128 -0.3869292648667755 0.04079848628576802 0.0128908890272839 0.7269330064879085 0.05122018870020996 0.01092947340238498 0.03805133576807369
3.3 0.05757555604385622 0.0306063440613777 0.6240931836612443 -0.3535294417787442 0.07167366539356693 0.0309225110492687 -0.1890970789366435 -0.3488612435909748 0.6240931836612442 -0.3535294417787444 0.05757555604385625 0.03060634406137783 -0.1890970789366435 -0.3488612435909748 0.07167366539356693 0.03092251104926865 0.07167366539356701 0.03092251104926876 -0.1890970789366436 -0.3488612435909746 0.0575755560438562 0.03060634406137773 0.6240931836612442 -0.3535294417787442 -0.1890970789366435 -0.3488612435909748 0.07167366539356684 0.03092251104926878 0.6240931836612444 -0.3535294417787442 0.057575556043856 0.03060634406137774
3.4 0.06799792379766884 -0.01526210824925086 0.322209264914436 -0.6307879486485686 0.09863629811964351 0.009731133389163309 -0.3554769493207233 -0.1885864789898156 0.3222092649144361 -0.6307879486485686 0.06799792379766895 -0.01526210824925076 -0.3554769493207233 -0.1885864789898156 0.09863629811964369 0.009731133389163191 0.09863629811964358 0.009731133389163267 -0.3554769493207232 -0.1885864789898155 0.067997923797669 -0.01526210824925075 0.3222092649144361 -0.6307879486485686 -0.3554769493207232 -0.1885864789898156 0.09863629811964358 0.009731133389163225 0.3222092649144361 -0.6307879486485686 0.067997923797669 -0.01526210824925074
3.5 0.02943523837209333 -0.04248120832014055 -0.07936290603976554 -0.6973360307911355 0.08908387308881399 -0.02226572057385276 -0.408621654400391 0.03704440377559089 -0.07936290603976565 -0.6973360307911358 0.02943523837209339 -0.04248120832014064 -0.4086216544003909 0.0370444037755909 0.08908387308881402 -0.02226572057385263 0.08908387308881402 -0.02226572057385261 -0.4086216544003908 0.0370444037755909 0.02943523837209372 -0.04248120832014067 -0.07936290603976562 -0.6973360307911358 -0.4086216544003909 0.03704440377559082 0.08908387308881398 -0.02226572057385275 -0.07936290603976559 -0.6973360307911357 0.0294352383720935 -0.04248120832014064
3.6 -0.01088438577479728 -0.01668673781752548 -0.4491314291337498 -0.5297454514087971 0.05642327436700119 -0.02455572283651067 -0.330418053064277 0.2626009341522673 -0.4491314291337498 -0.5297454514087973 -0.01088438577479711 -0.0166867378175258 -0.330418053064277 0.2626009341522673 0.05642327436700111 -0.02455572283651067 0.05642327436700126 -0.02455572283651064 -0.330418053064277 0.2626009341522673 -0.01088438577479728 -0.01668673781752572 -0.4491314291337497 -0.5297454514087973 -0.3304180530642771 0.2626009341522673 0.05642327436700123 -0.0245557228365107 -0.4491314291337497 -0.5297454514087971 -0.01088438577479728 -0.01668673781752558
3.7 -0.001552608071929751 0.03088784466158585 -0.6578624079191674 -0.187160407213978 0.04359329279464748 0.00449280343887748 -0.1316885611329443 0.413589260183801 -0.6578624079191675 -0.187160407213978 -0.001552608071929806 0.03088784466158582 -0.1316885611329442 0.4135892601838009 0.04359329279464763 0.004492803438877702 0.04359329279464765 0.004492803438877452 -0.1316885611329442 0.4135892601838012 -0.001552608071929695 0.03088784466158591 -0.6578624079191673 -0.187160407213978 -0.1316885611329444 0.4135892601838013 0.04359329279464761 0.004492803438877535 -0.6578624079191672 -0.1871604072139779 -0.001552608071929584 0.03088784466158601
3.8 0.04620269983949127 0.03950252813811811 -0.6402726854226732 0.2044251837510153 0.06545473024565769 0.02549359071969737 0.1249690469294598 0.4241327536426989 -0.6402726854226731 0.2044251837510154 0.04620269983949132 0.03950252813811808 0.1249690469294598 0.4241327536426991 0.06545473024565773 0.02549359071969751 0.06545473024565776 0.02549359071969744 0.1249690469294598 0.4241327536426991 0.04620269983949155 0.03950252813811803 -0.6402726854226731 0.2044251837510154 0.1249690469294598 0.4241327536426992 0.06545473024565773 0.02549359071969751 -0.6402726854226732 0.2044251837510155 0.04620269983949138 0.03950252813811808
3.9 0.0717972562691469 -0.001335874182198687 -0.4158385449082889 0.5156939583009629 0.09161313582411151 0.01314742863590322 0.3432448757863567 0.2867146851805719 -0.4158385449082889 0.5156939583009629 0.07179725626914696 -0.001335874182198757 0.3432448757863568 0.2867146851805718 0.09161313582411165 0.01314742863590325 0.09161313582411157 0.01314742863590315 0.3432448757863568 0.2867146851805719 0.07179725626914685 -0.001335874182198812 -0.4158385449082889 0.5156939583009628 0.3432448757863568 0.2867146851805719 0.09161313582411156 0.01314742863590317 -0.4158385449082889 0.515693958300963 0.0717972562691469 -0.001335874182198715
4 0.04384972155090711 -0.04048972903633132 -0.06112973147951929 0.6525288699175968 0.08959679826426034 -0.01483916190333927 0.4506149160145771 0.05229249137814838 -0.06112973147951928 0.652528869917597 0.04384972155090705 -0.0404897290363313 0.450614916014577 0.05229249137814834 0.08959679826426035 -0.01483916190333933 0.08959679826426034 -0.01483916190333923 0.450614916014577 0.05229249137814838 0.04384972155090716 -0.04048972903633132 -0.06112973147951927 0.6525288699175968 0.450614916014577 0.05229249137814838 0.08959679826426033 -0.01483916190333925 -0.06112973147951927 0.6525288699175968 0.04384972155090711 -0.04048972903633134
4.1 -0.003355786444705744 -0.02940766212896911 0.3085269301090527 0.5696588239738636 0.0631110904276997 -0.02251516467690223 0.4144735083025948 -0.2080485994005203 0.3085269301090527 0.5696588239738639 -0.003355786444705688 -0.02940766212896916 0.4144735083025949 -0.2080485994005203 0.06311109042769965 -0.02251516467690219 0.06311109042769969 -0.02251516467690212 0.4144735083025948 -0.2080485994005203 -0.003355786444705688 -0.02940766212896921 0.3085269301090527 0.5696588239738638 0.4144735083025949 -0.2080485994005202 0.06311109042769963 -0.02251516467690221 0.3085269301090527 0.5696588239738637 -0.003355786444705688 -0.02940766212896918
4.2 -0.01059442380528586 0.01898195693341642 0.5641799168886645 0.2962531625979326 0.04753111099810214 -0.000549367115565455 0.2347308533846204 -0.4129536569063716 0.5641799168886644 0.2962531625979327 -0.01059442380528583 0.01898195693341646 0.2347308533846203 -0.4129536569063716 0.04753111099810239 -0.0005493671155656493 0.04753111099810217 -0.0005493671155653995 0.2347308533846202 -0.4129536569063716 -0.01059442380528597 0.01898195693341648 0.5641799168886644 0.2962531625979325 0.2347308533846203 -0.4129536569063716 0.0475311109981022 -0.0005493671155656493 0.5641799168886643 0.2962531625979324 -0.01059442380528591 0.01898195693341653
4.3 0.03176724524715518 0.04338425759228429 0.6216356161668759 -0.06442983671345905 0.06257544655464042 0.02046048827869033 -0.03704961889489401 -0.4817104368547092 0.6216356161668761 -0.06442983671345906 0.03176724524715513 0.04338425759228429 -0.03704961889489404 -0.481710436854709 0.06257544655464045 0.02046048827869039 0.06257544655464041 0.02046048827869018 -0.03704961889489398 -0.481710436854709 0.03176724524715518 0.04338425759228424 0.6216356161668759 -0.06442983671345903 -0.037049618894894 -0.4817104368547089 0.06257544655464042 0.02046048827869017 0.6216356161668756 -0.06442983671345903 0.03176724524715535 0.04338425759228426
4.4 0.06981730783963525 0.013412384662098 0.475454676824931 -0.3894694744237696 0.08630897940387722 0.01379731495358122 -0.3016038269317588 -0.3835229019165632 0.4754546768249311 -0.3894694744237697 0.06981730783963527 0.01341238466209795 -0.3016038269317588 -0.3835229019165632 0.08630897940387702 0.01379731495358117 0.08630897940387719 0.01379731495358124 -0.3016038269317588 -0.3835229019165631 0.06981730783963519 0.01341238466209795 0.4754546768249311 -0.3894694744237696 -0.3016038269317589 -0.3835229019165634 0.08630897940387719 0.01379731495358126 0.4754546768249311 -0.3894694744237694 0.06981730783963527 0.01341238466209788
4.5 0.05666600488629037 -0.03288036920988217 0.1792861288681544 -0.579914726292629 0.08834079604634751 -0.01000530905231141 -0.4677320410759048 -0.1560429779697279 0.1792861288681544 -0.579914726292629 0.05666600488629048 -0.03288036920988219 -0.4677320410759048 -0.1560429779697279 0.08834079604634744 -0.01000530905231131 0.08834079604634751 -0.01000530905231141 -0.4677320410759049 -0.1560429779697278 0.05666600488629042 -0.03288036920988216 0.1792861288681544 -0.579914726292629 -0.4677320410759049 -0.1560429779697279 0.08834079604634745 -0.01000530905231134 0.1792861288681544 -0.5799147262926287 0.05666600488629031 -0.03288036920988222
4.6 0.008730425564385191 -0.03835288407887325 -0.1712533666948365 -0.5743628301001495 0.0669071945093713 -0.01993140420026314 -0.4848096815296158 0.1284450126049855 -0.1712533666948364 -0.5743628301001495 0.008730425564385247 -0.03835288407887318 -0.4848096815296157 0.1284450126049855 0.0669071945093713 -0.019931404200263 0.06690719450937119 -0.01993140420026338 -0.4848096815296157 0.1284450126049855 0.008730425564385413 -0.03835288407887329 -0.1712533666948366 -0.5743628301001498 -0.4848096815296157 0.1284450126049855 0.06690719450937127 -0.01993140420026315 -0.1712533666948366 -0.5743628301001497 0.008730425564385302 -0.03835288407887318
4.7 -0.01431292454531752 0.004316467224388276 -0.4543010719289581 -0.374537697928378 0.05078169205674671 -0.002971972747149164 -0.3392886022592725 0.3831078356606893 -0.4543010719289581 -0.374537697928378 -0.01431292454531741 0.004316467224388603 -0.3392886022592723 0.3831078356606893 0.05078169205674696 -0.002971972747149228 0.05078169205674674 -0.002971972747149186 -0.3392886022592723 0.3831078356606893 -0.01431292454531752 0.00431646722438849 -0.4543010719289582 -0.3745376979283779 -0.3392886022592722 0.3831078356606893 0.05078169205674676 -0.002971972747149193 -0.4543010719289581 -0.374537697928378 -0.01431292454531727 0.004316467224388326
4.8 0.01683929463990524 0.04129090643525554 -0.5731676756159898 -0.05855890276740166 0.06159542283867308 0.01712366627245443 -0.06866251159750442 0.5151294450769996 -0.5731676756159898 -0.05855890276740169 0.01683929463990513 0.04129090643525548 -0.06866251159750439 0.5151294450769995 0.06159542283867311 0.01712366627245444 0.06159542283867303 0.01712366627245461 -0.06866251159750442 0.5151294450769996 0.01683929463990536 0.04129090643525551 -0.5731676756159898 -0.05855890276740171 -0.06866251159750439 0.5151294450769995 0.06159542283867311 0.01712366627245436 -0.5731676756159898 -0.0585589027674017 0.01683929463990541 0.04129090643525551
4.9 0.06220004322569295 0.02627371891301365 -0.500885365436111 0.2615071310472096 0.08329754283692142 0.0135286379801971 0.2316777743764042 0.4702776739008278 -0.500885365436111 0.2615071310472096 0.06220004322569278 0.02627371891301377 0.2316777743764041 0.4702776739008278 0.08329754283692134 0.01352863798019706 0.08329754283692142 0.01352863798019704 0.2316777743764042 0.4702776739008278 0.06220004322569284 0.02627371891301377 -0.5008853654361111 0.2615071310472096 0.2316777743764043 0.4702776739008278 0.08329754283692142 0.01352863798019702 -0.500885365436111 0.2615071310472096 0.06220004322569284 0.02627371891301369
5 0.0654981404074067 -0.02088713517339126 -0.269792976259253 0.4871562364741535 0.0872028230472392 -0.007547173809686503 0.456214262010462 0.2666792161900766 -0.2697929762592529 0.4871562364741533 0.06549814040740676 -0.02088713517339136 0.4562142620104621 0.2666792161900768 0.08720282304723918 -0.007547173809686447 0.08720282304723934 -0.00754717380968653 0.456214262010462 0.2666792161900767 0.06549814040740659 -0.02088713517339139 -0.269792976259253 0.4871562364741533 0.456214262010462 0.2666792161900767 0.08720282304723924 -0.007547173809686489 -0.269792976259253 0.4871562364741535 0.06549814040740676 -0.02088713517339134
5.1 0.02325194993035845 -0.04185639962283663 0.04578942753059888 0.547291023565306 0.06874517756435344 -0.01836636379088195 0.5346117358212424 -0.02817610101499242 0.04578942753059879 0.5472910235653056 0.02325194993035851 -0.04185639962283658 0.5346117358212426 -0.02817610101499243 0.06874517756435344 -0.01836636379088183 0.06874517756435344 -0.01836636379088204 0.5346117358212428 -0.02817610101499246 0.02325194993035823 -0.04185639962283654 0.0457894275305988 0.5472910235653057 0.5346117358212424 -0.02817610101499245 0.0687451775643535 -0.01836636379088183 0.04578942753059882 0.5472910235653057 0.0232519499303584 -0.04185639962283659
5.2 -0.01203100289972264 -0.01046605214506498 0.3370541129661515 0.4204174025220451 0.05239530781967484 -0.004233510737107454 0.4370984719042627 -0.3244402051411058 0.3370541129661515 0.4204174025220452 -0.01203100289972256 -0.01046605214506477 0.4370984719042628 -0.3244402051411059 0.05239530781967489 -0.004233510737107496 0.05239530781967473 -0.004233510737107482 0.4370984719042626 -0.3244402051411058 -0.01203100289972267 -0.01046605214506476 0.3370541129661515 0.420417402522045 0.4370984719042625 -0.324440205141106 0.05239530781967476 -0.004233510737107427 0.3370541129661515 0.4204174025220452 -0.01203100289972253 -0.01046605214506487
5.3 0.004116028078307188 0.0336420934488823 0.5015277104565389 0.1585441010090764 0.06080740163616147 0.01567148773664026 0.1846803925392698 -0.5200252467060732 0.501527710456539 0.1585441010090765 0.004116028078307243 0.03364209344888227 0.1846803925392698 -0.5200252467060732 0.06080740163616143 0.01567148773664032 0.06080740163616141 0.01567148773664032 0.1846803925392698 -0.5200252467060733 0.004116028078307299 0.03364209344888241 0.5015277104565389 0.1585441010090765 0.1846803925392698 -0.5200252467060732 0.06080740163616149 0.01567148773664026 0.501527710456539 0.1585441010090764 0.004116028078307299 0.03364209344888237
5.4 0.05039223633835338 0.03496576255543026 0.4945272041594403 -0.1405885995420433 0.08201586962383751 0.01397541696336074 -0.1371374687257135 -0.5389924770777978 0.4945272041594402 -0.1405885995420434 0.05039223633835321 0.03496576255543035 -0.1371374687257135 -0.5389924770777976 0.0820158696238375 0.01397541696336069 0.08201586962383756 0.01397541696336067 -0.1371374687257135 -0.5389924770777978 0.05039223633835316 0.03496576255543035 0.4945272041594403 -0.1405885995420434 -0.1371374687257135 -0.5389924770777978 0.08201586962383749 0.01397541696336063 0.4945272041594402 -0.1405885995420434 0.05039223633835327 0.0349657625554303
5.5 0.06886699129231966 -0.006741901343488932 0.3297174935836805 -0.3829173242023978 0.08743334989049195 -0.006300410244662375 -0.4146137433574861 -0.3757983242570763 0.3297174935836804 -0.3829173242023978 0.06886699129231988 -0.006741901343489131 -0.4146137433574862 -0.3757983242570764 0.08743334989049187 -0.006300410244662432 0.08743334989049203 -0.006300410244662416 -0.4146137433574861 -0.3757983242570762 0.06886699129231977 -0.006741901343489001 0.3297174935836805 -0.3829173242023978 -0.414613743357486 -0.3757983242570763 0.0874333498904919 -0.006300410244662387 0.3297174935836806 -0.3829173242023979 0.0688669912923198 -0.006741901343488906
5.6 0.0375670516830644 -0.03948427401910142 0.06072864192502315 -0.4938893721728898 0.0701395845446966 -0.0184502789006654 -0.5584452739847179 -0.08663542836751495 0.06072864192502317 -0.4938893721728899 0.03756705168306446 -0.03948427401910139 -0.5584452739847179 -0.08663542836751495 0.07013958454469663 -0.01845027890066563 0.0701395845446966 -0.0184502789006655 -0.5584452739847175 -0.08663542836751489 0.03756705168306457 -0.03948427401910135 0.06072864192502316 -0.4938893721728899 -0.5584452739847179 -0.08663542836751494 0.0701395845446966 -0.01845027890066557 0.06072864192502317 -0.49388937217289 0.03756705168306446 -0.03948427401910139
5.7 -0.00441530670080903 -0.02276251774579335 -0.221109671964076 -0.4346011764690929 0.05247803526049165 -0.005900803617094913 -0.5203702788597948 0.2395020343745384 -0.221109671964076 -0.4346011764690929 -0.004415306700809196 -0.0227625177457933 -0.5203702788597949 0.2395020343745384 0.05247803526049149 -0.005900803617094913 0.05247803526049166 -0.005900803617094871 -0.520370278859795 0.2395020343745384 -0.004415306700809252 -0.02276251774579341 -0.2211096719640759 -0.4346011764690929 -0.5203702788597949 0.2395020343745384 0.05247803526049162 -0.005900803617094955 -0.221109671964076 -0.434601176469093 -0.004415306700809085 -0.02276251774579341
5.8 -0.004286455469358963 0.02207500890127077 -0.4143900143060343 -0.2316837405198189 0.05887897762927 0.01529609505082011 -0.3027421635512102 0.4943490491842674 -0.4143900143060343 -0.2316837405198189 -0.004286455469358907 0.02207500890127075 -0.3027421635512102 0.4943490491842672 0.05887897762927007 0.01529609505082012 0.05887897762927004 0.01529609505082002 -0.3027421635512101 0.4943490491842673 -0.004286455469358907 0.02207500890127077 -0.4143900143060344 -0.231683740519819 -0.3027421635512102 0.4943490491842674 0.05887897762927001 0.01529609505082001 -0.4143900143060343 -0.231683740519819 -0.004286455469358852 0.02207500890127084
5.9 0.03671738866418522 0.03822181740745921 -0.4609519903756116 0.03416428072149186 0.08113663688372229 0.01600126350485316 0.02378591176472829 0.5831672647323315 -0.4609519903756116 0.03416428072149183 0.03671738866418528 0.0382218174074592 0.02378591176472828 0.5831672647323316 0.08113663688372227 0.01600126350485312 0.08113663688372227 0.0160012635048532 0.02378591176472828 0.5831672647323316 0.03671738866418545 0.0382218174074592 -0.4609519903756116 0.03416428072149183 0.02378591176472828 0.5831672647323314 0.0811366368837223 0.01600126350485316 -0.4609519903756116 0.03416428072149182 0.03671738866418539 0.03822181740745919
6 0.06656343920584543 0.006939198456143991 -0.3587116668185802 0.2760946821223023 0.08927747476761275 -0.004703130695242558 0.3440049383008313 0.4748747494277071 -0.3587116668185801 0.2760946821223023 0.06656343920584543 0.006939198456144047 0.3440049383008313 0.4748747494277071 0.08927747476761273 -0.004703130695242502 0.08927747476761286 -0.004703130695242572 0.3440049383008314 0.4748747494277072 0.06656343920584556 0.006939198456143922 -0.35871166681858 0.2760946821223023 0.3440049383008313 0.4748747494277072 0.08927747476761275 -0.004703130695242558 -0.3587116668185801 0.2760946821223023 0.06656343920584551 0.006939198456143963
6.1 0.04920570368239197 -0.03210599717327026 -0.1430271675325052 0.421214569214735 0.07256380449501848 -0.01977069259507436 0.5527247783804841 0.208505841582928 -0.1430271675325052 0.421214569214735 0.04920570368239185 -0.03210599717327023 0.5527247783804841 0.208505841582928 0.07256380449501845 -0.01977069259507432 0.07256380449501847 -0.01977069259507433 0.5527247783804843 0.2085058415829281 0.04920570368239188 -0.03210599717327035 -0.1430271675325052 0.4212145692147348 0.5527247783804843 0.208505841582928 0.07256380449501845 -0.01977069259507433 -0.1430271675325052 0.4212145692147349 0.04920570368239194 -0.03210599717327029
6.2 0.006754078939309072 -0.03065992029273764 0.1144512757417769 0.4199708803353355 0.05202136464149119 -0.009065980356559922 0.5822657248101081 -0.1328116479711065 0.1144512757417769 0.4199708803353356 0.006754078939308905 -0.03065992029273766 0.5822657248101081 -0.1328116479711065 0.05202136464149115 -0.009065980356559991 0.05202136464149124 -0.009065980356559866 0.582265724810108 -0.1328116479711065 0.006754078939309016 -0.03065992029273765 0.1144512757417768 0.4199708803353355 0.5822657248101082 -0.1328116479711064 0.05202136464149112 -0.009065980356559977 0.1144512757417769 0.4199708803353356 0.006754078939309016 -0.03065992029273765
6.3 -0.007331243019109229 0.008958691338442556 0.3198371144523922 0.2763473175432281 0.05529994579720965 0.014614235193758 0.4144620805875687 -0.4383703666082414 0.319837114452392 0.276347317543228 -0.007331243019109174 0.008958691338442556 0.4144620805875686 -0.4383703666082414 0.0552999457972097 0.01461423519375805 0.05529994579720962 0.014614235193758 0.4144620805875688 -0.4383703666082414 -0.007331243019109146 0.008958691338442668 0.3198371144523919 0.2763473175432279 0.4144620805875686 -0.4383703666082415 0.05529994579720976 0.01461423519375812 0.3198371144523919 0.2763473175432279 -0.007331243019109118 0.008958691338442598
6.4 0.02372470165821278 0.03605160454656136 0.4063228489595307 0.05213499913842386 0.0791561926452849 0.01945763253253918 0.1010565330004753 -0.5982922931248192 0.4063228489595309 0.05213499913842388 0.02372470165821278 0.03605160454656138 0.1010565330004753 -0.5982922931248192 0.07915619264528494 0.01945763253253917 0.07915619264528495 0.01945763253253909 0.1010565330004752 -0.5982922931248191 0.02372470165821272 0.03605160454656138 0.4063228489595309 0.05213499913842385 0.1010565330004753 -0.5982922931248192 0.07915619264528491 0.01945763253253917 0.4063228489595309 0.05213499913842386 0.02372470165821278 0.03605160454656136
6.5 0.05962956739197911 0.01785293836694891 0.3589166049286983 -0.175009748138212 0.09197553791513888 -0.00143465869379221 -0.2478988105272569 -0.5560632081066413 0.3589166049286981 -0.1750097481382119 0.05962956739197917 0.01785293836694885 -0.247898810527257 -0.5560632081066414 0.09197553791513891 -0.001434658693792196 0.09197553791513885 -0.001434658693792099 -0.2478988105272569 -0.5560632081066414 0.05962956739197905 0.01785293836694886 0.3589166049286983 -0.1750097481382119 -0.2478988105272569 -0.5560632081066412 0.09197553791513893 -0.00143465869379214 0.3589166049286983 -0.1750097481382119 0.05962956739197905 0.01785293836694889
6.6 0.05648715439635077 -0.02160114830976233 0.1981121516256764 -0.3373433719617168 0.07688461096127386 -0.02111336504502642 -0.5160965994731508 -0.3291474323555176 0.1981121516256764 -0.3373433719617168 0.05648715439635077 -0.02160114830976225 -0.5160965994731507 -0.3291474323555176 0.07688461096127394 -0.02111336504502642 0.07688461096127391 -0.02111336504502642 -0.5160965994731508 -0.3291474323555177 0.05648715439635063 -0.02160114830976225 0.1981121516256764 -0.3373433719617167 -0.5160965994731508 -0.3291474323555177 0.07688461096127391 -0.02111336504502632 0.1981121516256764 -0.3373433719617166 0.05648715439635063 -0.02160114830976239
6.7 0.01909862514410243 -0.03336589326416126 -0.02384970378096177 -0.3813555611288404 0.05246149243418544 -0.01396040828789599 -0.6173617836527621 0.01058705625221307 -0.02384970378096173 -0.3813555611288404 0.01909862514410249 -0.03336589326416125 -0.617361783652762 0.01058705625221304 0.05246149243418544 -0.01396040828789602 0.05246149243418539 -0.01396040828789616 -0.6173617836527622 0.01058705625221308 0.01909862514410232 -0.03336589326416119 -0.02384970378096174 -0.3813555611288404 -0.6173617836527618 0.01058705625221306 0.05246149243418546 -0.01396040828789591 -0.02384970378096175 -0.3813555611288404 0.0190986251441026 -0.03336589326416121
6.8 -0.005231423218661102 -0.003249804821151378 -0.2258246193448906 -0.2930601036881843 0.05052346267111674 0.0122337439394758 -0.5118922017000245 0.3545556591343619 -0.2258246193448908 -0.2930601036881845 -0.005231423218661102 -0.003249804821151225 -0.5118922017000248 0.3545556591343622 0.05052346267111654 0.01223374393947573 0.05052346267111668 0.01223374393947593 -0.5118922017000247 0.354555659134362 -0.005231423218661102 -0.003249804821151309 -0.2258246193448905 -0.2930601036881842 -0.5118922017000248 0.354555659134362 0.05052346267111651 0.01223374393947583 -0.2258246193448908 -0.2930601036881844 -0.005231423218661185 -0.003249804821151253
6.9 0.01352967354292517 0.02962604846653009 -0.3377595546863959 -0.114736529119585 0.07498669370744748 0.02330223245010038 -0.2292267260855358 0.5820931439911885 -0.3377595546863958 -0.114736529119585 0.01352967354292511 0.02962604846652996 -0.2292267260855357 0.5820931439911884 0.07498669370744758 0.02330223245010033 0.07498669370744748 0.0233022324501005 -0.2292267260855358 0.5820931439911884 0.01352967354292511 0.02962604846652993 -0.3377595546863959 -0.114736529119585 -0.2292267260855358 0.5820931439911883 0.07498669370744757 0.02330223245010044 -0.3377595546863958 -0.114736529119585 0.013529673542925 0.02962604846652993
7 0.04998421419494803 0.02456926192307548 -0.3345824771945763 0.08671184634283122 0.09410858208537418 0.004076003656797667 0.1318698826960165 0.6129001800591314 -0.3345824771945765 0.08671184634283126 0.04998421419494814 0.02456926192307543 0.1318698826960165 0.6129001800591316 0.09410858208537415 0.004076003656797722 0.09410858208537416 0.004076003656797653 0.1318698826960165 0.6129001800591313 0.04998421419494808 0.02456926192307547 -0.3345824771945763 0.08671184634283124 0.1318698826960165 0.6129001800591314 0.09410858208537416 0.004076003656797736 -0.3345824771945765 0.08671184634283124 0.04998421419494797 0.02456926192307547
7.1 0.05888271624792105 -0.01029794114879316 -0.225473696052258 0.2506299910024418 0.08303407682451092 -0.02096446711895757 0.449625248219953 0.440176902464685 -0.225473696052258 0.2506299910024417 0.05888271624792105 -0.01029794114879304 0.4496252482199531 0.4401769024646848 0.08303407682451086 -0.02096446711895763 0.08303407682451101 -0.0209644671189576 0.4496252482199531 0.4401769024646848 0.05888271624792094 -0.01029794114879302 -0.2254736960522581 0.2506299910024417 0.449625248219953 0.4401769024646848 0.08303407682451092 -0.02096446711895757 -0.2254736960522581 0.2506299910024417 0.05888271624792091 -0.01029794114879296
7.2 0.03028745523220489 -0.03131122474767747 -0.04564338116726976 0.3251578024956227 0.05511311184217686 -0.0198718637882361 0.6220915471602502 0.1196471184432249 -0.04564338116726977 0.325157802495623 0.0302874552322048 -0.03131122474767749 0.6220915471602503 0.1196471184432249 0.05511311184217683 -0.01987186378823622 0.05511311184217681 -0.0198718637882361 0.6220915471602501 0.119647118443225 0.03028745523220505 -0.0313112247476775 -0.04564338116726973 0.3251578024956229 0.6220915471602504 0.119647118443225 0.05511311184217684 -0.0198718637882363 -0.04564338116726972 0.3251578024956229 0.03028745523220483 -0.0313112247476775
7.3 0.0007238970567885195 -0.01262071544796989 0.1396847565153641 0.2843781641713744 0.04578667739367079 0.007286566557918095 0.5880247112448763 -0.2473724396313613 0.1396847565153642 0.2843781641713746 0.0007238970567884639 -0.01262071544796994 0.5880247112448764 -0.2473724396313612 0.04578667739367076 0.007286566557918039 0.04578667739367076 0.007286566557918164 0.5880247112448762 -0.2473724396313611 0.000723897056788575 -0.01262071544797011 0.1396847565153639 0.2843781641713745 0.5880247112448764 -0.2473724396313612 0.04578667739367068 0.007286566557918026 0.1396847565153642 0.2843781641713746 0.0007238970567884639 -0.01262071544796999
7.4 0.007335875325894414 0.02085842834897961 0.262749909900113 0.1521733302344494 0.06836693627540233 0.02600351494734538 0.3523526222942511 -0.5345717106977377 0.262749909900113 0.1521733302344494 0.007335875325894581 0.02085842834897952 0.3523526222942511 -0.5345717106977377 0.06836693627540234 0.02600351494734538 0.06836693627540229 0.0260035149473453 0.3523526222942511 -0.5345717106977377 0.00733587532589447 0.02085842834897959 0.2627499099001131 0.1521733302344495 0.352352622294251 -0.5345717106977377 0.06836693627540234 0.02600351494734535 0.2627499099001132 0.1521733302344495 0.00733587532589447 0.02085842834897959
7.5 0.03983583651402767 0.02679468241100557 0.291504398856578 -0.01649896640554073 0.09414697873310357 0.01143072697236216 -0.002992446016330919 -0.6407946656656163 0.291504398856578 -0.0164989664055408 0.03983583651402783 0.02679468241100557 -0.002992446016330916 -0.6407946656656162 0.09414697873310356 0.01143072697236216 0.09414697873310356 0.01143072697236205 -0.002992446016330925 -0.6407946656656159 0.03983583651402783 0.02679468241100557 0.291504398856578 -0.01649896640554079 -0.002992446016330906 -0.6407946656656162 0.09414697873310353 0.01143072697236218 0.291504398856578 -0.01649896640554079 0.03983583651402789 0.02679468241100557
7.6 0.05702476019563735 -0.0003262702916227572 0.2270060512196842 -0.1689241941184412 0.09001891541537599 -0.01809616461311048 -0.3567080068341507 -0.5338676666952523 0.2270060512196842 -0.1689241941184412 0.05702476019563746 -0.0003262702916228405 -0.3567080068341507 -0.5338676666952523 0.09001891541537599 -0.01809616461311045 0.09001891541537597 -0.01809616461311049 -0.3567080068341507 -0.5338676666952523 0.0570247601956374 -0.0003262702916228405 0.2270060512196842 -0.1689241941184412 -0.3567080068341507 -0.5338676666952524 0.09001891541537602 -0.01809616461311046 0.2270060512196841 -0.1689241941184412 0.05702476019563746 -0.0003262702916228544
7.7 0.03862578705540354 -0.02590799224477354 0.09110532927343837 -0.2587994137319574 0.06065844213191958 -0.02538266581892159 -0.5950927412199931 -0.2496136008510118 0.09110532927343822 -0.2587994137319573 0.03862578705540357 -0.02590799224477343 -0.5950927412199929 -0.2496136008510117 0.06065844213191941 -0.02538266581892151 0.06065844213191958 -0.02538266581892159 -0.595092741219993 -0.2496136008510117 0.03862578705540362 -0.02590799224477355 0.09110532927343837 -0.2587994137319575 -0.595092741219993 -0.2496136008510118 0.06065844213191947 -0.02538266581892154 0.09110532927343833 -0.2587994137319574 0.03862578705540365 -0.02590799224477346
7.8 0.008616666853085819 -0.01817505393138992 -0.06763534751403485 -0.2546773348288362 0.04268272080003727 -0.0002267108199886791 -0.6372676573483432 0.1230094785991486 -0.06763534751403472 -0.2546773348288361 0.008616666853086125 -0.01817505393138999 -0.6372676573483431 0.1230094785991486 0.04268272080003736 -0.0002267108199885681 0.0426827208000371 -0.0002267108199887069 -0.6372676573483433 0.1230094785991487 0.008616666853086041 -0.01817505393138992 -0.0676353475140348 -0.2546773348288362 -0.6372676573483429 0.1230094785991486 0.04268272080003729 -0.0002267108199885681 -0.06763534751403481 -0.254677334828836 0.008616666853086069 -0.01817505393138991
7.9 0.005250705939251366 0.01182994731673287 -0.1886319667885882 -0.16501850542307 0.05998423553671154 0.02608275644606344 -0.4624164918501785 0.4579185889462988 -0.1886319667885881 -0.1650185054230701 0.00525070593925131 0.01182994731673265 -0.4624164918501785 0.4579185889462987 0.05998423553671159 0.02608275644606343 0.05998423553671162 0.02608275644606341 -0.4624164918501787 0.4579185889462989 0.005250705939251366 0.01182994731673315 -0.188631966788588 -0.16501850542307 -0.4624164918501786 0.4579185889462988 0.05998423553671171 0.02608275644606335 -0.188631966788588 -0.16501850542307 0.00525070593925131 0.01182994731673304
8 0.03107893192603139 0.0252908587953048 -0.2364024817595199 -0.03232242304897454 0.09100711824230566 0.01937827937624063 -0.1307883377845565 0.6372829815301359 -0.2364024817595199 -0.03232242304897457 0.03107893192603134 0.02529085879530477 -0.1307883377845565 0.637282981530136 0.09100711824230562 0.01937827937624069 0.09100711824230562 0.01937827937624066 -0.1307883377845566 0.637282981530136 0.03107893192603145 0.02529085879530481 -0.2364024817595199 -0.03232242304897458 -0.1307883377845565 0.6372829815301357 0.09100711824230567 0.01937827937624061 -0.2364024817595199 -0.03232242304897458 0.03107893192603145 0.02529085879530479
8.1 0.05238342488183778 0.006910265792350101 -0.2066554089029853 0.09888991797579216 0.09624750694620511 -0.01203453980877831 0.2427256944252246 0.6038095785389592 -0.2066554089029854 0.09888991797579216 0.05238342488183767 0.006910265792350129 0.2427256944252245 0.6038095785389592 0.09624750694620514 -0.01203453980877827 0.09624750694620512 -0.01203453980877824 0.2427256944252245 0.6038095785389592 0.05238342488183778 0.006910265792350052 -0.2066554089029854 0.09888991797579214 0.2427256944252246 0.6038095785389594 0.0962475069462051 -0.01203453980877828 -0.2066554089029853 0.09888991797579211 0.05238342488183789 0.006910265792350052
8.199999999999999 0.04341432520719773 -0.01905048779977127 -0.1119536997029325 0.1900205880788844 0.06885664003090292 -0.02884531400125578 0.5373671736186593 0.3709677516039346 -0.1119536997029324 0.1900205880788845 0.04341432520719776 -0.01905048779977118 0.537367173618659 0.3709677516039345 0.06885664003090292 -0.02884531400125579 0.06885664003090294 -0.02884531400125579 0.5373671736186593 0.3709677516039346 0.04341432520719771 -0.01905048779977128 -0.1119536997029325 0.1900205880788844 0.5373671736186593 0.3709677516039345 0.06885664003090292 -0.02884531400125582 -0.1119536997029325 0.1900205880788844 0.04341432520719773 -0.01905048779977127
8.300000000000001 0.01648032412839032 -0.02001085683940237 0.01430740279042955 0.2098068687287759 0.04262089938712182 -0.009378569612642579 0.6558834796143299 0.0110291661187858 0.01430740279042955 0.2098068687287758 0.01648032412839048 -0.02001085683940236 0.65588347961433 0.01102916611878584 0.04262089938712182 -0.009378569612642579 0.04262089938712181 -0.009378569612642773 0.65588347961433 0.01102916611878579 0.0164803241283904 -0.02001085683940233 0.01430740279042955 0.209806868728776 0.65588347961433 0.0110291661187858 0.04262089938712183 -0.009378569612642607 0.01430740279042957 0.209806868728776 0.01648032412839037 -0.02001085683940237
8.4 0.006416239843490101 0.004230959224950925 0.1221206771145235 0.1557489544722199 0.05129180734220291 0.02262393931035286 0.5522680595120321 -0.3563396033213289 0.1221206771145235 0.1557489544722199 0.006416239843490129 0.004230959224950953 0.552268059512032 -0.356339603321329 0.05129180734220293 0.02262393931035294 0.05129180734220295 0.02262393931035293 0.552268059512032 -0.356339603321329 0.006416239843490046 0.004230959224950981 0.1221206771145234 0.1557489544722198 0.552268059512032 -0.356339603321329 0.05129180734220293 0.02262393931035292 0.1221206771145235 0.1557489544722198 0.006416239843490046 0.004230959224950981
8.5 0.02484995721430755 0.02151125202373188 0.1763389378763274 0.05848801468247551 0.08444169834934874 0.02620107828192319 0.2612583761835023 -0.6020927194569459 0.1763389378763275 0.0584880146824755 0.02484995721430749 0.02151125202373191 0.2612583761835023 -0.6020927194569458 0.08444169834934875 0.02620107828192313 0.08444169834934878 0.02620107828192315 0.2612583761835022 -0.6020927194569458 0.02484995721430761 0.0215112520237319 0.1763389378763275 0.05848801468247551 0.2612583761835023 -0.602092719456946 0.08444169834934873 0.02620107828192316 0.1763389378763275 0.05848801468247551 0.02484995721430755 0.02151125202373189
8.6 0.04674056057594184 0.01099312254957544 0.1698855793299427 -0.04552565761841292 0.1000469829905084 -0.003261946586257093 -0.1145151475395567 -0.6453761762085557 0.1698855793299427 -0.04552565761841296 0.046740560575942 0.0109931225495754 -0.1145151475395567 -0.6453761762085557 0.1000469829905084 -0.003261946586257062 0.1000469829905084 -0.00326194658625709 -0.1145151475395566 -0.6453761762085555 0.04674056057594184 0.01099312254957545 0.1698855793299427 -0.04552565761841298 -0.1145151475395567 -0.6453761762085558 0.1000469829905084 -0.003261946586257031 0.1698855793299427 -0.04552565761841298 0.04674056057594189 0.01099312254957544
8.699999999999999 0.04498404840065229 -0.01252687358542391 0.1098907437604345 -0.1261359036462198 0.0785651039746869 -0.02893261740010055 -0.4521861375584429 -0.4760164919553625 0.1098907437604345 -0.1261359036462197 0.04498404840065237 -0.01252687358542391 -0.4521861375584429 -0.4760164919553625 0.07856510397468694 -0.02893261740010054 0.0785651039746869 -0.02893261740010055 -0.4521861375584428 -0.4760164919553626 0.04498404840065223 -0.01252687358542381 0.1098907437604345 -0.1261359036462198 -0.4521861375584429 -0.4760164919553626 0.0785651039746869 -0.02893261740010053 0.1098907437604345 -0.1261359036462198 0.0449840484006524 -0.01252687358542399
8.800000000000001 0.02283915364731746 -0.01911209197104774 0.01763943100655931 -0.1565772249289957 0.04634416242255855 -0.01855673439972635 -0.642326108994558 -0.1464815355076064 0.01763943100655931 -0.1565772249289957 0.02283915364731748 -0.01911209197104764 -0.642326108994558 -0.1464815355076063 0.04634416242255855 -0.01855673439972641 0.04634416242255857 -0.01855673439972644 -0.6423261089945581 -0.1464815355076065 0.02283915364731744 -0.01911209197104767 0.01763943100655932 -0.1565772249289957 -0.6423261089945581 -0.1464815355076064 0.04634416242255854 -0.01855673439972635 0.01763943100655926 -0.1565772249289956 0.02283915364731735 -0.01911209197104766
8.9 0.009392764280529875 -0.001030534314422321 -0.06884995395790425 -0.1285280233040721 0.04408915290761446 0.01560337423535614 -0.6161110662419288 0.2357885731580106 -0.06884995395790425 -0.1285280233040721 0.009392764280529819 -0.001030534314422432 -0.6161110662419288 0.2357885731580106 0.04408915290761442 0.01560337423535616 0.04408915290761442 0.01560337423535619 -0.6161110662419288 0.2357885731580107 0.009392764280529931 -0.00103053431442246 -0.06884995395790419 -0.1285280233040721 -0.6161110662419287 0.2357885731580105 0.04408915290761443 0.01560337423535617 -0.06884995395790428 -0.1285280233040721 0.009392764280529903 -0.001030534314422488
9 0.0213493528705419 0.01709059086708505 -0.118201406294059 -0.06270643739201101 0.07515918588986259 0.03023598058722317 -0.3804795534450405 0.5370811904011764 -0.118201406294059 -0.06270643739201102 0.02134935287054202 0.01709059086708506 -0.3804795534450405 0.5370811904011764 0.07515918588986262 0.0302359805872232 0.07515918588986259 0.03023598058722321 -0.3804795534450405 0.5370811904011765 0.02134935287054213 0.01709059086708507 -0.118201406294059 -0.06270643739201101 -0.3804795534450404 0.5370811904011764 0.07515918588986262 0.03023598058722321 -0.118201406294059 -0.06270643739201104 0.02134935287054207 0.01709059086708505
9.1 0.04164158415851144 0.01243040088562336 -0.1230793621899002 0.01191162517778643 0.1001913725377369 0.006892506128358452 -0.02022309012029043 0.6559741212760766 -0.1230793621899003 0.01191162517778644 0.04164158415851149 0.01243040088562336 -0.02022309012029044 0.6559741212760765 0.1001913725377369 0.006892506128358431 0.1001913725377369 0.006892506128358449 -0.02022309012029042 0.6559741212760765 0.04164158415851138 0.01243040088562336 -0.1230793621899002 0.01191162517778644 -0.02022309012029043 0.6559741212760765 0.1001913725377369 0.006892506128358466 -0.1230793621899002 0.01191162517778644 0.04164158415851132 0.01243040088562336
9.199999999999999 0.04442208372114853 -0.007531304235952302 -0.08858906100751988 0.07337657542380219 0.08805505983449498 -0.02507771145876102 0.3447502693553574 0.5583471749790452 -0.08858906100751987 0.07337657542380219 0.04442208372114864 -0.007531304235952288 0.3447502693553573 0.5583471749790451 0.08805505983449496 -0.02507771145876103 0.08805505983449496 -0.02507771145876104 0.3447502693553575 0.5583471749790452 0.0444220837211487 -0.007531304235952413 -0.08858906100751988 0.07337657542380219 0.3447502693553574 0.5583471749790453 0.08805505983449496 -0.02507771145876105 -0.08858906100751986 0.07337657542380216 0.0444220837211487 -0.007531304235952399
9.300000000000001 0.02704666792782615 -0.01691647839498889 -0.02772060736161548 0.1021113781345136 0.05365695182045884 -0.02592725836573465 0.5973900647258775 0.2750044507445866 -0.02772060736161551 0.1021113781345135 0.02704666792782628 -0.01691647839498886 0.5973900647258774 0.2750044507445867 0.05365695182045884 -0.02592725836573463 0.05365695182045883 -0.02592725836573466 0.5973900647258775 0.2750044507445867 0.02704666792782617 -0.0169164783949888 -0.02772060736161552 0.1021113781345135 0.5973900647258775 0.2750044507445867 0.05365695182045885 -0.02592725836573465 -0.02772060736161551 0.1021113781345136 0.02704666792782623 -0.01691647839498886
9.4 0.01266866528833143 -0.003954294748254372 0.03294070052563072 0.08886652894950381 0.03999547331764903 0.005945653108823667 0.6499485625855621 -0.103570385594224 0.0329407005256307 0.08886652894950378 0.01266866528833157 -0.003954294748254414 0.6499485625855621 -0.103570385594224 0.03999547331764896 0.00594565310882364 0.03999547331764892 0.005945653108823654 0.6499485625855622 -0.103570385594224 0.01266866528833162 -0.003954294748254442 0.03294070052563067 0.08886652894950378 0.6499485625855619 -0.103570385594224 0.03999547331764898 0.005945653108823654 0.03294070052563071 0.08886652894950382 0.01266866528833149 -0.003954294748254428
9.5 0.01995122523437662 0.01334519181036604 0.06823468794311673 0.04751137792220041 0.06465401754798031 0.03036941788627621 0.4812928689269931 -0.4460858033738946 0.06823468794311677 0.04751137792220039 0.01995122523437665 0.01334519181036604 0.4812928689269931 -0.4460858033738945 0.06465401754798027 0.03036941788627621 0.06465401754798028 0.03036941788627622 0.4812928689269931 -0.4460858033738944 0.01995122523437654 0.01334519181036599 0.06823468794311675 0.04751137792220038 0.4812928689269931 -0.4460858033738945 0.06465401754798027 0.03036941788627624 0.06823468794311674 0.04751137792220039 0.01995122523437659 0.01334519181036603
9.6 0.03798950414214652 0.01233643403679808 0.07296416839373718 0.0008565213114819399 0.0962779457375747 0.01661783119437542 0.1534969311475267 -0.6351132870689993 0.07296416839373721 0.0008565213114819521 0.03798950414214647 0.01233643403679803 0.1534969311475267 -0.6351132870689994 0.0962779457375747 0.01661783119437544 0.09627794573757471 0.01661783119437544 0.1534969311475267 -0.6351132870689993 0.03798950414214647 0.01233643403679802 0.07296416839373721 0.0008565213114819399 0.1534969311475266 -0.6351132870689993 0.0962779457375747 0.01661783119437543 0.07296416839373721 0.000856521311481933 0.03798950414214658 0.01233643403679806
9.699999999999999 0.04310503191217885 -0.004418150528021435 0.05319807946466625 -0.03641526354687608 0.09550482119421673 -0.01766694578422678 -0.2216821190865227 -0.6132750242658997 0.05319807946466626 -0.03641526354687606 0.04310503191217874 -0.004418150528021351 -0.2216821190865227 -0.6132750242658997 0.09550482119421674 -0.01766694578422679 0.09550482119421673 -0.01766694578422678 -0.2216821190865227 -0.6132750242658997 0.04310503191217885 -0.004418150528021414 0.05319807946466626 -0.03641526354687606 -0.2216821190865227 -0.6132750242658997 0.09550482119421672 -0.01766694578422679 0.05319807946466625 -0.03641526354687606 0.04310503191217885 -0.004418150528021414
9.800000000000001 0.0293317197289687 -0.01479407594975343 0.01758608836848529 -0.05315204120813135 0.06344771713217789 -0.029966075597367 -0.5241145489150385 -0.3888770868879057 0.01758608836848528 -0.05315204120813134 0.02933171972896878 -0.01479407594975343 -0.5241145489150386 -0.3888770868879056 0.06344771713217787 -0.02996607559736699 0.06344771713217787 -0.02996607559736698 -0.5241145489150386 -0.3888770868879057 0.02933171972896878 -0.01479407594975363 0.01758608836848528 -0.05315204120813136 -0.5241145489150385 -0.3888770868879056 0.06344771713217787 -0.02996607559736698 0.01758608836848527 -0.05315204120813136 0.02933171972896872 -0.01479407594975335
9.9 0.01513771464798558 -0.005286788622177928 -0.01665476921591102 -0.04313675973231675 0.03997658601248574 -0.004707881706669338 -0.6519250031092964 -0.03220509037032826 -0.01665476921591102 -0.0431367597323167 0.0151377146479855 -0.005286788622177963 -0.6519250031092966 -0.03220509037032827 0.03997658601248572 -0.004707881706669352 0.03997658601248572 -0.004707881706669352 -0.6519250031092965 -0.03220509037032825 0.01513771464798566 -0.005286788622177956 -0.01665476921591099 -0.04313675973231667 -0.6519250031092964 -0.03220509037032822 0.03997658601248572 -0.004707881706669345 -0.01665476921591101 -0.0431367597323167 0.01513771464798547 -0.005286788622177935
10 0.01954383763872949 0.01092459698758372 -0.03159862404128416 -0.01703034402380361 0.05480839596880027 0.02636561202309595 -0.5577981540161487 0.3346791067102741 -0.0315986240412842 -0.01703034402380361 0.01954383763872936 0.01092459698758391 -0.5577981540161486 0.3346791067102741 0.05480839596880029 0.02636561202309598 0.05480839596880031 0.02636561202309596 -0.5577981540161485 0.3346791067102742 0.01954383763872944 0.01092459698758391 -0.03159862404128418 -0.01703034402380364 -0.5577981540161487 0.3346791067102742 0.05480839596880028 0.02636561202309596 -0.03159862404128418 -0.0170303440238036 0.01954383763872947 0.01092459698758408
10.1 0.03588234948612018 0.01197305435425393 -0.02609440185891949 0.00639169279093202 0.08885177522588464 0.02411634845495879 -0.2775448528231797 0.5843556241730871 -0.02609440185891946 0.006391692790932008 0.03588234948612018 0.01197305435425382 -0.2775448528231798 0.5843556241730871 0.08885177522588462 0.02411634845495877 0.08885177522588462 0.02411634845495879 -0.2775448528231797 0.5843556241730871 0.03588234948612007 0.01197305435425382 -0.02609440185891949 0.006391692790932038 -0.2775448528231796 0.584355624173087 0.08885177522588464 0.02411634845495879 -0.02609440185891949 0.006391692790932031 0.03588234948612001 0.0119730543542538
10.2 0.04220563645996644 -0.002746649585122662 -0.009778403781130995 0.01810162453108768 0.09950566949404861 -0.007941054283275777 0.09045569727696806 0.6380845737028976 -0.009778403781130989 0.0181016245310877 0.04220563645996656 -0.00274664958512268 0.09045569727696806 0.6380845737028976 0.0995056694940486 -0.007941054283275781 0.0995056694940486 -0.007941054283275779 0.09045569727696806 0.6380845737028977 0.0422056364599665 -0.002746649585122683 -0.009778403781130993 0.01810162453108768 0.09045569727696806 0.6380845737028976 0.09950566949404861 -0.007941054283275776 -0.009778403781130995 0.01810162453108768 0.0422056364599665 -0.002746649585122683
10.3 0.03056268719614594 -0.01361046389261809 0.009260443792929876 0.01544228177768362 0.07398957772393519 -0.0298869533258871 0.4274522054263581 0.4816162892302247 0.009260443792929889 0.01544228177768364 0.03056268719614605 -0.01361046389261812 0.4274522054263581 0.4816162892302246 0.07398957772393518 -0.02988695332588708 0.07398957772393516 -0.02988695332588708 0.427452205426358 0.4816162892302245 0.03056268719614599 -0.01361046389261801 0.009260443792929911 0.01544228177768365 0.427452205426358 0.4816162892302245 0.07398957772393516 -0.02988695332588709 0.009260443792929899 0.01544228177768364 0.03056268719614591 -0.01361046389261798
10.4 0.01639765303345805 -0.006141591346347897 0.02021638852777946 -0.002033705897471351 0.04407047472034555 -0.01444351203168347 0.62248415273424 0.1632852323747347 0.02021638852777948 -0.002033705897471334 0.01639765303345789 -0.00614159134634798 0.6224841527342401 0.1632852323747347 0.04407047472034555 -0.01444351203168348 0.0440704747203456 -0.01444351203168346 0.6224841527342401 0.1632852323747346 0.01639765303345804 -0.006141591346347897 0.02021638852777944 -0.002033705897471337 0.6224841527342402 0.1632852323747348 0.04407047472034552 -0.0144435120316835 0.02021638852777946 -0.00203370589747132 0.01639765303345789 -0.00614159134634798
10.5 0.01898431810880741 0.009705604987168853 0.01196313641012461 -0.02336125483559968 0.04738682869927728 0.01893734374932386 0.6057945998888752 -0.2097962878165307 0.01196313641012462 -0.02336125483559969 0.01898431810880728 0.009705604987168881 0.6057945998888753 -0.2097962878165306 0.04738682869927727 0.01893734374932383 0.04738682869927729 0.01893734374932386 0.6057945998888753 -0.2097962878165306 0.0189843181088073 0.009705604987168881 0.01196313641012459 -0.02336125483559972 0.6057945998888753 -0.2097962878165305 0.04738682869927727 0.01893734374932386 0.0119631364101246 -0.0233612548355997 0.01898431810880731 0.009705604987168881
10.6 0.03471576085529546 0.01229976543031554 -0.01161937885462675 -0.03104869149659885 0.07925814125912956 0.0280804288151152 0.3853192803426083 -0.5071772109731911 -0.01161937885462675 -0.03104869149659885 0.03471576085529546 0.01229976543031554 0.3853192803426083 -0.5071772109731911 0.07925814125912957 0.02808042881511521 0.07925814125912958 0.0280804288151152 0.3853192803426083 -0.5071772109731912 0.0347157608552954 0.0122997654303155 -0.01161937885462674 -0.03104869149659884 0.3853192803426083 -0.5071772109731911 0.07925814125912958 0.0280804288151152 -0.01161937885462675 -0.03104869149659885 0.03471576085529546 0.01229976543031557
10.7 0.04232610231920747 -0.001568372901473612 -0.03525281554829748 -0.01937711715430036 0.09942840716287163 0.002344968955835945 0.04115736947256579 -0.6320986985848187 -0.03525281554829748 -0.01937711715430036 0.04232610231920753 -0.001568372901473608 0.04115736947256578 -0.6320986985848187 0.09942840716287163 0.002344968955835953 0.09942840716287163 0.002344968955835954 0.04115736947256579 -0.6320986985848189 0.04232610231920758 -0.001568372901473602 -0.03525281554829748 -0.01937711715430034 0.04115736947256578 -0.6320986985848188 0.09942840716287166 0.002344968955835953 -0.03525281554829747 -0.01937711715430034 0.04232610231920758 -0.001568372901473599
10.8 0.03183321308128984 -0.01350633933853586 -0.04791321160035385 0.006730860682089222 0.0834109813359733 -0.02583737020326281 -0.313775736599882 -0.5484179321049052 -0.04791321160035386 0.006730860682089205 0.03183321308128989 -0.01350633933853584 -0.3137757365998819 -0.5484179321049052 0.0834109813359733 -0.02583737020326282 0.0834109813359733 -0.02583737020326281 -0.3137757365998818 -0.5484179321049051 0.03183321308128989 -0.0135063393385358 -0.04791321160035387 0.00673086068208922 -0.3137757365998819 -0.5484179321049052 0.08341098133597329 -0.0258373702032628 -0.04791321160035386 0.00673086068208922 0.03183321308129006 -0.01350633933853587
10.9 0.01678609232016876 -0.007538468207423543 -0.0418571564498437 0.04040570237562673 0.05139215489040005 -0.02158933986593803 -0.564289584027392 -0.2819650620736788 -0.04185715644984369 0.04040570237562672 0.01678609232016878 -0.007538468207423543 -0.5642895840273922 -0.2819650620736789 0.05139215489040005 -0.021589339865938 0.05139215489040005 -0.02158933986593801 -0.564289584027392 -0.2819650620736788 0.01678609232016881 -0.007538468207423515 -0.04185715644984368 0.04040570237562674 -0.564289584027392 -0.2819650620736789 0.05139215489040005 -0.02158933986593802 -0.04185715644984371 0.04040570237562673 0.01678609232016881 -0.007538468207423571
11 0.0175212516472424 0.008946660844287663 -0.01119398362296815 0.06751889487878482 0.04357424162927191 0.009543506961995893 -0.6231236941396261 0.07921801318870994 -0.01119398362296812 0.06751889487878482 0.01752125164724262 0.008946660844287635 -0.6231236941396261 0.07921801318870995 0.04357424162927193 0.009543506961995872 0.04357424162927189 0.009543506961995962 -0.6231236941396262 0.07921801318870997 0.01752125164724258 0.008946660844287663 -0.01119398362296814 0.0675188948787848 -0.6231236941396261 0.07921801318871001 0.04357424162927191 0.0095435069619959 -0.01119398362296813 0.0675188948787848 0.01752125164724254 0.00894666084428769
11.1 0.03349822650468634 0.01366432662161854 0.03534963763357458 0.06896533330982597 0.06927711492609964 0.02801767203545238 -0.470946321255079 0.4087381938892979 0.03534963763357458 0.06896533330982596 0.0334982265046864 0.01366432662161844 -0.4709463212550791 0.408738193889298 0.06927711492609963 0.02801767203545238 0.06927711492609964 0.02801767203545241 -0.4709463212550791 0.4087381938892979 0.0334982265046864 0.01366432662161846 0.03534963763357458 0.06896533330982596 -0.4709463212550789 0.4087381938892978 0.06927711492609964 0.0280176720354524 0.03534963763357459 0.06896533330982597 0.03349822650468634 0.01366432662161837
11.2 0.04335444846419473 0.0001555888037286721 0.07563139669710631 0.0393168866071638 0.095555674728249 0.01138811419692864 -0.1655946574129841 0.5966280135518909 0.07563139669710631 0.03931688660716382 0.04335444846419484 0.0001555888037287345 -0.1655946574129841 0.5966280135518909 0.095555674728249 0.01138811419692862 0.09555567472824901 0.01138811419692864 -0.165594657412984 0.5966280135518909 0.04335444846419473 0.0001555888037286998 0.07563139669710631 0.0393168866071638 -0.1655946574129841 0.596628013551891 0.095555674728249 0.01138811419692862 0.07563139669710632 0.0393168866071638 0.04335444846419478 0.0001555888037287345
11.3 0.03402048751134723 -0.01394098468941254 0.09259096911071904 -0.0108003300063739 0.09018244241870772 -0.0188189954061451 0.190320062310941 0.586399472989572 0.09259096911071904 -0.01080033000637391 0.03402048751134729 -0.01394098468941254 0.190320062310941 0.5863994729895721 0.0901824424187077 -0.01881899540614509 0.09018244241870768 -0.01881899540614509 0.190320062310941 0.5863994729895721 0.03402048751134734 -0.01394098468941261 0.09259096911071901 -0.0108003300063739 0.190320062310941 0.586399472989572 0.09018244241870772 -0.01881899540614508 0.09259096911071903 -0.01080033000637392 0.03402048751134734 -0.01394098468941257
11.4 0.017162044968555 -0.01001906193371252 0.07808095617220559 -0.06670426974140363 0.06040456070309887 -0.02513729763116344 0.4819159595926087 0.3816967839918597 0.07808095617220562 -0.06670426974140363 0.01716204496855492 -0.01001906193371259 0.4819159595926087 0.3816967839918597 0.06040456070309886 -0.02513729763116345 0.06040456070309885 -0.02513729763116347 0.4819159595926086 0.3816967839918595 0.01716204496855495 -0.01001906193371238 0.07808095617220563 -0.0667042697414036 0.4819159595926087 0.3816967839918598 0.06040456070309883 -0.02513729763116348 0.07808095617220565 -0.06670426974140362 0.01716204496855492 -0.01001906193371242
11.5 0.0150514539624049 0.007639163350863575 0.02920096619353103 -0.1091128121518582 0.0436950782849912 -1.927917697401582e-05 0.609838709456315 0.04906067335616165 0.02920096619353107 -0.1091128121518582 0.01505145396240483 0.007639163350863547 0.6098387094563151 0.04906067335616167 0.04369507828499114 -1.927917697396031e-05 0.04369507828499115 -1.927917697394643e-05 0.609838709456315 0.04906067335616165 0.01505145396240494 0.007639163350863589 0.029200966193531 -0.1091128121518582 0.6098387094563151 0.04906067335616165 0.04369507828499117 -1.927917697394643e-05 0.02920096619353109 -0.1091128121518582 0.01505145396240483 0.007639163350863575
11.6 0.03126989622608695 0.01571870616521248 -0.04174596481495312 -0.1148012244753722 0.06065185752101507 0.02433810078431802 0.5301469874733683 -0.2955326900719367 -0.04174596481495311 -0.1148012244753722 0.03126989622608689 0.0157187061652125 0.5301469874733682 -0.2955326900719366 0.06065185752101506 0.024338100784318 0.06065185752101503 0.02433810078431798 0.5301469874733684 -0.2955326900719367 0.03126989622608681 0.01571870616521263 -0.04174596481495312 -0.1148012244753722 0.5301469874733683 -0.2955326900719367 0.06065185752101504 0.024338100784318 -0.04174596481495313 -0.1148012244753722 0.03126989622608684 0.01571870616521259
11.7 0.04456627757787424 0.003144784436831714 -0.1057145273002032 -0.07526521248184986 0.0889590390969687 0.0177910492115484 0.2759701059853124 -0.5348334119231901 -0.1057145273002032 -0.07526521248184984 0.04456627757787426 0.003144784436831694 0.2759701059853124 -0.5348334119231901 0.08895903909696871 0.01779104921154839 0.08895903909696871 0.01779104921154839 0.2759701059853124 -0.5348334119231902 0.04456627757787421 0.0031447844368317 -0.1057145273002031 -0.07526521248184985 0.2759701059853124 -0.5348334119231901 0.08895903909696871 0.01779104921154839 -0.1057145273002032 -0.07526521248184986 0.04456627757787421 0.0031447844368317
11.8 0.0374578222143947 -0.01395852262315533 -0.1371622224338307 -0.003984901480883136 0.09347628773915967 -0.01037801526700585 -0.06463641243228889 -0.5946726531687929 -0.1371622224338307 -0.003984901480883124 0.03745782221439453 -0.0139585226231553 -0.06463641243228888 -0.5946726531687929 0.09347628773915967 -0.01037801526700583 0.09347628773915967 -0.01037801526700585 -0.06463641243228888 -0.5946726531687929 0.03745782221439464 -0.01395852262315532 -0.1371622224338307 -0.003984901480883133 -0.06463641243228888 -0.5946726531687929 0.09347628773915968 -0.01037801526700583 -0.1371622224338307 -0.003984901480883138 0.0374578222143947 -0.01395852262315532
11.9 0.01852655044370899 -0.01345979025699144 -0.1240868526483209 0.0770452778713366 0.06935620495594796 -0.02495044221435455 -0.3813783281233795 -0.4575357685769854 -0.1240868526483209 0.07704527787133665 0.01852655044370893 -0.01345979025699129 -0.3813783281233795 -0.4575357685769853 0.06935620495594801 -0.02495044221435452 0.06935620495594796 -0.02495044221435459 -0.3813783281233795 -0.4575357685769854 0.01852655044370899 -0.01345979025699137 -0.1240868526483209 0.0770452778713366 -0.3813783281233795 -0.4575357685769853 0.06935620495594803 -0.02495044221435454 -0.1240868526483209 0.0770452778713366 0.01852655044370896 -0.01345979025699134
12 0.01213486057562001 0.004928994657398628 -0.06399690406437797 0.1422400592166589 0.04719168201833399 -0.008099228905497767 -0.5681497573341246 -0.1674941314341998 -0.06399690406437814 0.142240059216659 0.01213486057561995 0.004928994657398586 -0.5681497573341245 -0.1674941314341998 0.04719168201833394 -0.008099228905497753 0.0471916820183341 -0.008099228905497823 -0.5681497573341246 -0.1674941314341997 0.01213486057561997 0.004928994657398628 -0.06399690406437801 0.1422400592166589 -0.568149757334125 -0.1674941314341998 0.04719168201833397 -0.008099228905497746 -0.06399690406437802 0.1422400592166589 0.01213486057561984 0.004928994657398489
12.1 0.02748825817313992 0.01757646374186439 0.02923380653357202 0.1625009984889149 0.05465053420445719 0.01818638486464133 -0.5605668894539857 0.174903820946149 0.02923380653357198 0.1625009984889148 0.02748825817313991 0.0175764637418644 -0.5605668894539859 0.174903820946149 0.05465053420445716 0.01818638486464137 0.05465053420445719 0.01818638486464133 -0.5605668894539859 0.1749038209461491 0.02748825817313978 0.01757646374186453 0.02923380653357203 0.1625009984889148 -0.5605668894539859 0.174903820946149 0.05465053420445718 0.01818638486464128 0.02923380653357202 0.1625009984889149 0.02748825817313985 0.01757646374186438
12.2 0.04492402451754662 0.007520419035563469 0.1209172718876595 0.1230650054300722 0.08117009041777555 0.02087832781278028 -0.3665134251646062 0.4514994360457589 0.1209172718876595 0.1230650054300722 0.0449240245175466 0.007520419035563455 -0.3665134251646063 0.451499436045759 0.08117009041777555 0.02087832781278027 0.08117009041777556 0.02087832781278026 -0.3665134251646062 0.4514994360457589 0.04492402451754662 0.007520419035563372 0.1209172718876595 0.1230650054300722 -0.3665134251646062 0.4514994360457589 0.08117009041777554 0.02087832781278029 0.1209172718876596 0.1230650054300722 0.04492402451754662 0.007520419035563428
12.3 0.04181220975033384 -0.01257392132561763 0.1756354078295591 0.03658730078627306 0.09330862180694459 -0.00217206240734788 -0.0559095170391227 0.5742944177570708 0.1756354078295591 0.03658730078627304 0.04181220975033376 -0.01257392132561764 -0.05590951703912271 0.5742944177570708 0.09330862180694457 -0.002172062407347838 0.09330862180694457 -0.00217206240734788 -0.05590951703912269 0.5742944177570707 0.04181220975033381 -0.01257392132561765 0.1756354078295591 0.03658730078627308 -0.0559095170391227 0.5742944177570707 0.09330862180694457 -0.002172062407347831 0.1756354078295591 0.03658730078627306 0.04181220975033376 -0.01257392132561765
12.4 0.02162020989985977 -0.01712610195816548 0.1742636843149245 -0.06918498668876989 0.07674215158109159 -0.0217115744435664 0.2695907783208623 0.5063957642701553 0.1742636843149246 -0.06918498668876985 0.0216202098998598 -0.01712610195816546 0.2695907783208622 0.5063957642701553 0.07674215158109163 -0.02171157444356641 0.07674215158109163 -0.02171157444356637 0.2695907783208621 0.5063957642701553 0.02162020989985972 -0.01712610195816543 0.1742636843149246 -0.06918498668876989 0.2695907783208623 0.5063957642701553 0.07674215158109157 -0.02171157444356638 0.1742636843149245 -0.06918498668876988 0.02162020989985977 -0.0171261019581655
12.5 0.009776324636267056 0.0004629641063230161 0.1119618588435246 -0.1619681421357371 0.05285347389206212 -0.01359517735187864 0.5021491995824433 0.2695809452045478 0.1119618588435246 -0.1619681421357371 0.009776324636266959 0.00046296410632303 0.5021491995824434 0.2695809452045478 0.05285347389206217 -0.01359517735187864 0.05285347389206214 -0.01359517735187865 0.5021491995824433 0.2695809452045478 0.009776324636266986 0.0004629641063230161 0.1119618588435246 -0.161968142135737 0.5021491995824433 0.2695809452045477 0.0528534738920621 -0.01359517735187862 0.1119618588435246 -0.1619681421357371 0.009776324636267056 0.0004629641063229883
12.6 0.02225627617987952 0.01815154489164025 0.001847571692181103 -0.2058671768364413 0.05178997281754789 0.01107913120831958 0.5619453779872963 -0.05445177995720203 0.001847571692181069 -0.2058671768364414 0.02225627617987946 0.01815154489164029 0.5619453779872963 -0.05445177995720205 0.05178997281754788 0.01107913120831956 0.05178997281754788 0.01107913120831955 0.5619453779872963 -0.054451779957202 0.02225627617987949 0.01815154489164029 0.001847571692181083 -0.2058671768364412 0.5619453779872963 -0.05445177995720205 0.05178997281754788 0.01107913120831965 0.001847571692181096 -0.2058671768364412 0.02225627617987944 0.01815154489164029
12.7 0.04347193462991358 0.01273732868802871 -0.1181015000940539 -0.1774014733688313 0.07374864118417737 0.0207936101914266 0.4329678014744331 -0.3526957590291263 -0.1181015000940539 -0.1774014733688313 0.04347193462991364 0.01273732868802874 0.4329678014744331 -0.3526957590291263 0.07374864118417737 0.02079361019142658 0.0737486411841774 0.02079361019142661 0.4329678014744331 -0.3526957590291263 0.04347193462991364 0.01273732868802871 -0.1181015000940539 -0.1774014733688314 0.4329678014744331 -0.3526957590291263 0.07374864118417734 0.02079361019142658 -0.1181015000940539 -0.1774014733688314 0.04347193462991361 0.01273732868802878
12.8 0.0461891813512838 -0.009151802983622767 -0.2026142707691889 -0.08430268393764651 0.09044188894169572 0.004456256371760607 0.164598076781399 -0.5281276836054256 -0.2026142707691889 -0.08430268393764651 0.04618918135128386 -0.009151802983622739 0.164598076781399 -0.5281276836054255 0.09044188894169572 0.004456256371760642 0.09044188894169572 0.004456256371760642 0.164598076781399 -0.5281276836054255 0.04618918135128375 -0.00915180298362276 -0.2026142707691889 -0.08430268393764652 0.164598076781399 -0.5281276836054256 0.09044188894169572 0.004456256371760586 -0.2026142707691888 -0.08430268393764651 0.04618918135128378 -0.00915180298362276
12.9 0.02662813069677039 -0.01993092718364328 -0.2226866203891185 0.04261311271598155 0.08165301304456427 -0.01665224987527118 -0.153828232452732 -0.5271362790475485 -0.2226866203891186 0.04261311271598155 0.02662813069677036 -0.01993092718364326 -0.153828232452732 -0.5271362790475485 0.08165301304456427 -0.01665224987527116 0.08165301304456427 -0.01665224987527122 -0.153828232452732 -0.5271362790475486 0.02662813069677036 -0.01993092718364327 -0.2226866203891185 0.04261311271598157 -0.153828232452732 -0.5271362790475485 0.08165301304456428 -0.01665224987527118 -0.2226866203891185 0.04261311271598155 0.02662813069677039 -0.01993092718364326
13 0.009061413238198313 -0.005450713326906262 -0.168254525729058 0.1647358841052196 0.05920813582116668 -0.01616935785009312 -0.4173767690448004 -0.3503105957728624 -0.1682545257290579 0.1647358841052196 0.009061413238198285 -0.005450713326906304 -0.4173767690448004 -0.3503105957728625 0.05920813582116669 -0.01616935785009312 0.05920813582116669 -0.01616935785009313 -0.4173767690448006 -0.3503105957728624 0.009061413238198257 -0.005450713326906345 -0.1682545257290579 0.1647358841052196 -0.4173767690448005 -0.3503105957728624 0.05920813582116671 -0.01616935785009317 -0.1682545257290579 0.1647358841052196 0.009061413238198229 -0.005450713326906331
13.1 0.01632258254845012 0.01655976683276714 -0.04931105088603754 0.239156080111696 0.05179535925417277 0.004467234148780461 -0.5360769432160193 -0.05859149535345999 -0.04931105088603756 0.239156080111696 0.01632258254845022 0.01655976683276715 -0.5360769432160193 -0.05859149535346002 0.05179535925417274 0.004467234148780461 0.05179535925417271 0.004467234148780461 -0.5360769432160191 -0.05859149535346 0.01632258254845036 0.01655976683276717 -0.04931105088603759 0.2391560801116961 -0.5360769432160193 -0.05859149535345998 0.05179535925417269 0.00446723414878053 -0.04931105088603757 0.2391560801116961 0.01632258254845027 0.01655976683276715
13.2 0.03969875216882239 0.01774230720887911 0.09586906138639496 0.2322683141226308 0.06787764445465416 0.01836108291952465 -0.4728983413769428 0.2453154107709825 0.09586906138639503 0.2322683141226309 0.03969875216882229 0.01774230720887917 -0.4728983413769429 0.2453154107709826 0.06787764445465416 0.01836108291952467 0.06787764445465409 0.01836108291952459 -0.4728983413769428 0.2453154107709825 0.03969875216882236 0.01774230720887911 0.095869061386395 0.2322683141226308 -0.4728983413769429 0.2453154107709825 0.06787764445465416 0.01836108291952469 0.09586906138639505 0.2322683141226309 0.03969875216882232 0.01774230720887907
13.3 0.04942124404623577 -0.003662654719650618 0.2137235937894639 0.1429769693998263 0.08609283280193557 0.008781447016002884 -0.2557829495960294 0.4606128576894718 0.2137235937894639 0.1429769693998263 0.04942124404623569 -0.003662654719650708 -0.2557829495960294 0.4606128576894718 0.08609283280193558 0.008781447016002905 0.08609283280193564 0.008781447016002843 -0.2557829495960295 0.4606128576894719 0.04942124404623574 -0.00366265471965066 0.2137235937894639 0.1429769693998263 -0.2557829495960294 0.4606128576894719 0.08609283280193558 0.008781447016002912 0.2137235937894639 0.1429769693998263 0.04942124404623569 -0.003662654719650653
13.4 0.03307648426751092 -0.02080229178194212 0.2635837901879126 0.001471590877108256 0.08392426692078142 -0.01116021328059993 0.04122585819386673 0.520524539897519 0.2635837901879126 0.001471590877108249 0.03307648426751092 -0.02080229178194212 0.04122585819386674 0.520524539897519 0.08392426692078142 -0.01116021328059993 0.08392426692078145 -0.01116021328059989 0.04122585819386677 0.5205245398975192 0.03307648426751103 -0.02080229178194213 0.2635837901879124 0.001471590877108228 0.04122585819386677 0.5205245398975192 0.08392426692078145 -0.01116021328059989 0.2635837901879124 0.001471590877108218 0.03307648426751097 -0.02080229178194212
13.5 0.01077439323712398 -0.01190829987692839 0.2272905811849209 -0.1485857159586837 0.06494320633081246 -0.01622246071362455 0.3203075798907868 0.4064323574834503 0.227290581184921 -0.1485857159586837 0.01077439323712401 -0.01190829987692844 0.3203075798907867 0.4064323574834504 0.06494320633081244 -0.01622246071362455 0.06494320633081246 -0.01622246071362451 0.3203075798907867 0.4064323574834502 0.01077439323712395 -0.01190829987692833 0.227290581184921 -0.1485857159586837 0.3203075798907868 0.4064323574834504 0.06494320633081238 -0.01622246071362456 0.227290581184921 -0.1485857159586837 0.01077439323712398 -0.0119082998769284
13.6 0.01086232818180496 0.01244701260403388 0.109385102491421 -0.2576057550905135 0.05379086864264698 -0.0006380955884546236 0.4865675462129385 0.1579283789684447 0.1093851024914211 -0.2576057550905135 0.01086232818180485 0.01244701260403383 0.4865675462129385 0.1579283789684447 0.05379086864264694 -0.0006380955884545819 0.05379086864264697 -0.0006380955884546374 0.4865675462129385 0.1579283789684447 0.01086232818180492 0.01244701260403387 0.109385102491421 -0.2576057550905135 0.4865675462129384 0.1579283789684447 0.05379086864264698 -0.0006380955884546374 0.1093851024914211 -0.2576057550905135 0.01086232818180485 0.01244701260403384
13.7 0.0337514527181518 0.0213029139380076 -0.05469812592143687 -0.2815268460989697 0.06410353875925112 0.01476563600330953 0.4858495876525722 -0.1365163197088674 -0.05469812592143685 -0.2815268460989697 0.03375145271815178 0.02130291393800759 0.4858495876525722 -0.1365163197088673 0.06410353875925115 0.01476563600330952 0.06410353875925112 0.01476563600330952 0.4858495876525722 -0.1365163197088673 0.03375145271815179 0.02130291393800759 -0.05469812592143685 -0.2815268460989697 0.4858495876525722 -0.1365163197088673 0.06410353875925112 0.01476563600330957 -0.05469812592143684 -0.2815268460989697 0.03375145271815178 0.02130291393800758
13.8 0.05044533575173452 0.003258783838473348 -0.2059883792064719 -0.2073351212539018 0.08154162374502821 0.01079573480476577 0.3252712749209691 -0.37743284937498 -0.205988379206472 -0.2073351212539019 0.05044533575173452 0.003258783838473278 0.3252712749209691 -0.37743284937498 0.08154162374502821 0.01079573480476574 0.08154162374502819 0.01079573480476574 0.3252712749209691 -0.37743284937498 0.05044533575173446 0.003258783838473361 -0.2059883792064719 -0.2073351212539019 0.3252712749209691 -0.37743284937498 0.08154162374502824 0.01079573480476571 -0.205988379206472 -0.2073351212539019 0.05044533575173446 0.003258783838473334
13.9 0.0399416066562539 -0.01904207111361692 -0.2917714280943343 -0.06027733999120947 0.08406283880625616 -0.00638674936350675 0.06168134756449987 -0.4891016570909672 -0.2917714280943343 -0.06027733999120948 0.03994160665625376 -0.01904207111361694 0.06168134756449986 -0.489101657090967 0.08406283880625617 -0.006386749363506722 0.08406283880625617 -0.006386749363506791 0.06168134756449987 -0.4891016570909671 0.03994160665625374 -0.01904207111361695 -0.2917714280943343 -0.06027733999120952 0.06168134756449986 -0.489101657090967 0.08406283880625615 -0.00638674936350668 -0.2917714280943343 -0.06027733999120952 0.03994160665625374 -0.01904207111361695
14 0.01512020254013507 -0.01766767696924901 -0.2832225552609225 0.1132460005682003 0.06923179415357789 -0.01466334259639575 -0.2178324848460241 -0.4365627583290533 -0.2832225552609225 0.1132460005682003 0.01512020254013507 -0.01766767696924899 -0.2178324848460242 -0.4365627583290532 0.06923179415357793 -0.01466334259639573 0.0692317941535779 -0.01466334259639579 -0.2178324848460242 -0.4365627583290534 0.0151202025401351 -0.01766767696924905 -0.2832225552609225 0.1132460005682003 -0.2178324848460242 -0.4365627583290533 0.06923179415357794 -0.01466334259639569 -0.2832225552609225 0.1132460005682003 0.01512020254013505 -0.01766767696924903
14.1 0.007120372826472959 0.006139942519954004 -0.1771197340640209 0.2578254323378721 0.05664208932699519 -0.003867605194488678 -0.4184379756794268 -0.2386288406915534 -0.177119734064021 0.2578254323378721 0.007120372826472945 0.006139942519953999 -0.4184379756794268 -0.2386288406915534 0.05664208932699527 -0.00386760519448863 0.05664208932699527 -0.003867605194488671 -0.4184379756794269 -0.2386288406915534 0.007120372826472932 0.006139942519953969 -0.1771197340640209 0.2578254323378721 -0.4184379756794268 -0.2386288406915534 0.05664208932699522 -0.003867605194488664 -0.1771197340640209 0.2578254323378721 0.007120372826472973 0.006139942519954037
14.2 0.0264334872588845 0.02239590824041424 -0.003117611808957046 0.3194881722052746 0.06229113499412138 0.01116169099032899 -0.4733100822386325 0.03313347906022736 -0.003117611808957046 0.3194881722052746 0.02643348725888456 0.02239590824041426 -0.4733100822386324 0.03313347906022736 0.06229113499412141 0.01116169099032893 0.06229113499412139 0.0111616909903289 -0.4733100822386324 0.03313347906022737 0.02643348725888447 0.02239590824041425 -0.00311761180895705 0.3194881722052746 -0.4733100822386324 0.03313347906022736 0.06229113499412139 0.01116169099032897 -0.003117611808957043 0.3194881722052746 0.02643348725888456 0.02239590824041425
14.3 0.04864986081959033 0.01046781357674386 0.1781206792185797 0.2714285130839558 0.07776281887093621 0.01109178264238559 -0.3706133898860952 0.2850643760261091 0.1781206792185797 0.2714285130839559 0.04864986081959029 0.01046781357674392 -0.3706133898860952 0.2850643760261091 0.07776281887093618 0.01109178264238566 0.07776281887093614 0.01109178264238559 -0.370613389886095 0.2850643760261091 0.04864986081959033 0.01046781357674387 0.1781206792185797 0.2714285130839559 -0.3706133898860952 0.2850643760261091 0.07776281887093617 0.01109178264238559 0.1781206792185797 0.2714285130839559 0.04864986081959036 0.01046781357674382
14.4 0.04593081344365646 -0.01456817394523906 0.3030605317892711 0.129627050227098 0.08299087414816761 -0.002965076235718123 -0.1493822315254199 0.4369562938033592 0.3030605317892711 0.129627050227098 0.0459308134436564 -0.01456817394523912 -0.1493822315254199 0.4369562938033591 0.0829908741481676 -0.002965076235718123 0.08299087414816765 -0.002965076235718178 -0.1493822315254199 0.4369562938033592 0.04593081344365646 -0.01456817394523908 0.3030605317892711 0.129627050227098 -0.1493822315254199 0.4369562938033592 0.08299087414816762 -0.002965076235718123 0.303060531789271 0.1296270502270979 0.04593081344365649 -0.01456817394523907
14.5 0.02162930622366047 -0.02150732392394869 0.3303901479157463 -0.06009945382195091 0.07187865074077052 -0.01256184851331502 0.1167661762541968 0.4411671591428797 0.3303901479157463 -0.06009945382195092 0.02162930622366044 -0.02150732392394868 0.1167661762541968 0.4411671591428797 0.07187865074077052 -0.0125618485133151 0.0718786507407705 -0.01256184851331511 0.1167661762541968 0.4411671591428797 0.02162930622366044 -0.02150732392394866 0.3303901479157462 -0.06009945382195093 0.1167661762541968 0.4411671591428798 0.07187865074077049 -0.01256184851331514 0.3303901479157463 -0.0600994538219509 0.02162930622366049 -0.02150732392394869
14.6 0.006037478144447814 -0.001419438099745041 0.2468588885228443 -0.2380207951004154 0.05933069333020007 -0.005481335520841889 0.3376487867879664 0.2974013308372513 0.2468588885228443 -0.2380207951004154 0.006037478144447744 -0.001419438099744957 0.3376487867879664 0.2974013308372513 0.05933069333020004 -0.005481335520841929 0.05933069333020012 -0.00548133552084192 0.3376487867879665 0.2974013308372515 0.006037478144447758 -0.001419438099745075 0.2468588885228441 -0.2380207951004154 0.3376487867879666 0.2974013308372514 0.05933069333020012 -0.005481335520841891 0.2468588885228441 -0.2380207951004154 0.006037478144447772 -0.001419438099745061
14.7 0.01899443219806521 0.02052776901946736 0.07372145227688476 -0.3414321818750185 0.06178921830459506 0.008337923118879806 0.4384867392733729 0.05885383570153142 0.0737214522768848 -0.3414321818750185 0.01899443219806515 0.02052776901946736 0.4384867392733729 0.05885383570153142 0.06178921830459506 0.008337923118879806 0.06178921830459502 0.008337923118879778 0.4384867392733727 0.05885383570153139 0.01899443219806532 0.0205277690194674 0.07372145227688481 -0.3414321818750187 0.4384867392733728 0.0588538357015314 0.06178921830459501 0.008337923118879834 0.07372145227688483 -0.3414321818750186 0.01899443219806532 0.02052776901946737
14.8 0.0440821828627158 0.01662519711982711 -0.1306569321409932 -0.3291722773243497 0.07518855058572091 0.01057767436826562 0.3912469622714188 -0.1902422034432737 -0.1306569321409931 -0.3291722773243497 0.04408218286271579 0.01662519711982715 0.3912469622714188 -0.1902422034432737 0.07518855058572088 0.01057767436826557 0.07518855058572094 0.01057767436826562 0.3912469622714187 -0.1902422034432737 0.04408218286271574 0.01662519711982711 -0.1306569321409932 -0.3291722773243498 0.3912469622714187 -0.1902422034432737 0.07518855058572091 0.01057767436826559 -0.1306569321409932 -0.3291722773243497 0.04408218286271581 0.01662519711982711
14.9 0.04984645508773536 -0.007969911871967016 -0.2946183507827484 -0.2042728967832044 0.08169518233658835 -0.000913066954893349 0.2177612510072983 -0.369393453461785 -0.2946183507827483 -0.2042728967832044 0.0498464550877353 -0.007969911871967029 0.2177612510072983 -0.369393453461785 0.08169518233658832 -0.0009130669548933629 0.08169518233658835 -0.0009130669548933976 0.2177612510072983 -0.3693934534617851 0.04984645508773536 -0.007969911871966981 -0.2946183507827483 -0.2042728967832044 0.2177612510072983 -0.369393453461785 0.08169518233658829 -0.0009130669548933421 -0.2946183507827483 -0.2042728967832044 0.04984645508773536 -0.007969911871967029
15 0.0292649909717326 -0.02257579017863759 -0.3637378860792702 -0.007937504172191552 0.07326251588103988 -0.01079675991226578 -0.02339001628113913 -0.4224413809452912 -0.3637378860792702 -0.007937504172191556 0.02926499097173257 -0.02257579017863759 -0.0233900162811391 -0.4224413809452912 0.07326251588103989 -0.01079675991226584 0.07326251588103988 -0.01079675991226585 -0.0233900162811391 -0.4224413809452912 0.02926499097173252 -0.02257579017863758 -0.3637378860792702 -0.007937504172191542 -0.02339001628113909 -0.4224413809452912 0.07326251588103989 -0.01079675991226585 -0.3637378860792702 -0.007937504172191552 0.02926499097173263 -0.0225757901786376
15.1 0.00797506036159995 -0.008923078594986131 -0.3127159202655816 0.1980709145602627 0.06124526756758339 -0.006168579390783052 -0.2506103372462073 -0.3327129780389704 -0.3127159202655816 0.1980709145602626 0.007975060361599923 -0.008923078594986103 -0.2506103372462072 -0.3327129780389704 0.06124526756758349 -0.006168579390783052 0.06124526756758347 -0.006168579390782969 -0.2506103372462072 -0.3327129780389704 0.007975060361599937 -0.008923078594986145 -0.3127159202655816 0.1980709145602626 -0.2506103372462073 -0.3327129780389704 0.0612452675675834 -0.006168579390783017 -0.3127159202655816 0.1980709145602627 0.007975060361599923 -0.008923078594986131
15.2 0.01278636161167807 0.0158884505083182 -0.1520873821072746 0.3439954791370962 0.06173486696427104 0.006537370309389126 -0.385936370016393 -0.1347325074997248 -0.1520873821072746 0.3439954791370962 0.01278636161167801 0.01588845050831823 -0.3859363700163931 -0.1347325074997248 0.06173486696427102 0.006537370309389168 0.06173486696427105 0.006537370309389182 -0.3859363700163931 -0.1347325074997248 0.01278636161167804 0.01588845050831824 -0.1520873821072745 0.3439954791370962 -0.3859363700163931 -0.1347325074997248 0.06173486696427103 0.006537370309389112 -0.1520873821072746 0.3439954791370962 0.01278636161167804 0.01588845050831824
15.3 0.03745369567577056 0.02057086303622817 0.06590771911557186 0.3749073111470812 0.07366825687423062 0.01012568183550859 -0.3884584712898207 0.09939932366938957 0.06590771911557189 0.3749073111470812 0.03745369567577062 0.02057086303622816 -0.3884584712898207 0.09939932366938957 0.07366825687423062 0.01012568183550853 0.07366825687423062 0.01012568183550852 -0.3884584712898208 0.09939932366938958 0.03745369567577048 0.02057086303622819 0.06590771911557186 0.3749073111470811 -0.3884584712898209 0.0993993236693896 0.07366825687423063 0.01012568183550858 0.06590771911557186 0.374907311147081 0.0374536956757705 0.02057086303622819
15.4 0.05092156624282343 -0.0003626892315759028 0.2652420779305126 0.2783225646088268 0.0808945936196511 0.0002633000673867014 -0.2643779018888111 0.2924952743307001 0.2652420779305126 0.2783225646088268 0.05092156624282343 -0.0003626892315758612 -0.2643779018888111 0.2924952743307001 0.08089459361965112 0.000263300067386704 0.08089459361965114 0.0002633000673867101 -0.2643779018888111 0.2924952743307001 0.0509215662428234 -0.0003626892315758386 0.2652420779305126 0.2783225646088268 -0.2643779018888111 0.2924952743307001 0.08089459361965112 0.0002633000673867231 0.2652420779305126 0.2783225646088268 0.05092156624282339 -0.0003626892315758724
15.5 0.03669436842657262 -0.02062993787735629 0.3792018376183364 0.08662295351011245 0.07410976160842679 -0.009802505963541416 -0.05696920656662183 0.3840971750835167 0.3792018376183364 0.08662295351011245 0.0366943684265725 -0.02062993787735632 -0.05696920656662181 0.3840971750835166 0.07410976160842679 -0.009802505963541347 0.07410976160842681 -0.009802505963541402 -0.05696920656662181 0.3840971750835166 0.03669436842657256 -0.0206299378773563 0.3792018376183365 0.08662295351011245 -0.05696920656662179 0.3840971750835166 0.07410976160842678 -0.009802505963541333 0.3792018376183364 0.08662295351011243 0.03669436842657262 -0.02062993787735628
15.6 0.01261434260894659 -0.01504591355863161 0.3690198934378242 -0.1394901542831531 0.06231037122661153 -0.006740408390409527 0.1637118614845708 0.3447887207705461 0.3690198934378242 -0.1394901542831531 0.01261434260894656 -0.01504591355863157 0.1637118614845708 0.3447887207705462 0.06231037122661145 -0.006740408390409583 0.06231037122661144 -0.006740408390409583 0.1637118614845708 0.3447887207705461 0.01261434260894667 -0.01504591355863164 0.369019893437824 -0.1394901542831531 0.1637118614845708 0.3447887207705462 0.06231037122661143 -0.006740408390409625 0.3690198934378243 -0.1394901542831531 0.01261434260894656 -0.0150459135586316
15.7 0.008899705716422526 0.009299947678625332 0.2324837545144555 -0.3254010959113243 0.06138691044743141 0.005473101463001159 0.3211222640651673 0.1913158516284884 0.2324837545144555 -0.3254010959113244 0.008899705716422485 0.009299947678625312 0.3211222640651674 0.1913158516284885 0.06138691044743137 0.005473101463001166 0.06138691044743146 0.005473101463001097 0.3211222640651674 0.1913158516284884 0.008899705716422471 0.009299947678625305 0.2324837545144554 -0.3254010959113242 0.3211222640651675 0.1913158516284885 0.0613869104474314 0.005473101463001152 0.2324837545144555 -0.3254010959113243 0.008899705716422443 0.009299947678625346
15.8 0.02994745267941573 0.02163697669356448 0.01227637661759683 -0.403906269446784 0.07262170975051743 0.01027251432005684 0.36516577014673 -0.01816121555121415 0.01227637661759683 -0.4039062694467841 0.02994745267941584 0.02163697669356449 0.36516577014673 -0.01816121555121414 0.07262170975051745 0.01027251432005689 0.07262170975051743 0.01027251432005676 0.3651657701467299 -0.01816121555121413 0.02994745267941587 0.02163697669356449 0.01227637661759685 -0.4039062694467841 0.36516577014673 -0.01816121555121416 0.07262170975051743 0.01027251432005689 0.01227637661759684 -0.4039062694467841 0.02994745267941587 0.02163697669356449
15.9 0.04902513323757693 0.006910070531788891 -0.215491965733753 -0.3457505358742202 0.0808281119949435 0.001311621472268647 0.2886034807142724 -0.2126011964265439 -0.2154919657337529 -0.3457505358742199 0.04902513323757694 0.006910070531788895 0.2886034807142724 -0.212601196426544 0.08082811199494344 0.001311621472268619 0.0808281119949435 0.001311621472268668 0.2886034807142725 -0.212601196426544 0.04902513323757691 0.006910070531788919 -0.2154919657337529 -0.3457505358742201 0.2886034807142724 -0.2126011964265439 0.0808281119949435 0.001311621472268605 -0.2154919657337529 -0.3457505358742201 0.04902513323757691 0.00691007053178886
16 0.04263946671901608 -0.01609567317893962 -0.3740498720334283 -0.1706973652302708 0.07518032909931535 -0.009483580789510324 0.1203074142852287 -0.3310423214050359 -0.3740498720334283 -0.1706973652302708 0.04263946671901607 -0.01609567317893962 0.1203074142852287 -0.3310423214050359 0.07518032909931535 -0.009483580789510268 0.07518032909931535 -0.00948358078951031 0.1203074142852286 -0.3310423214050358 0.04263946671901604 -0.01609567317893964 -0.3740498720334283 -0.1706973652302708 0.1203074142852287 -0.3310423214050359 0.07518032909931535 -0.009483580789510324 -0.3740498720334282 -0.1706973652302708 0.04263946671901607 -0.01609567317893962
16.1 0.01904975891767877 -0.01878888139916042 -0.4107265698106916 0.06529956335129973 0.06293066649099123 -0.007817391081128486 -0.08287857594162115 -0.3355112393258479 -0.4107265698106916 0.06529956335129974 0.01904975891767877 -0.01878888139916038 -0.08287857594162108 -0.3355112393258478 0.06293066649099127 -0.007817391081128389 0.06293066649099122 -0.007817391081128472 -0.08287857594162117 -0.3355112393258479 0.01904975891767866 -0.01878888139916038 -0.4107265698106916 0.06529956335129977 -0.08287857594162114 -0.3355112393258478 0.06293066649099129 -0.007817391081128375 -0.4107265698106914 0.06529956335129969 0.01904975891767882 -0.01878888139916042
16.2 0.007888073389842265 0.001987655368352281 -0.3089458136087821 0.2855415556131706 0.06038164588851408 0.004514272420584782 -0.2499541601749119 -0.2270633565467569 -0.308945813608782 0.2855415556131706 0.00788807338984221 0.001987655368352301 -0.2499541601749119 -0.2270633565467569 0.06038164588851413 0.004514272420584751 0.06038164588851408 0.004514272420584806 -0.2499541601749119 -0.2270633565467569 0.007888073389842196 0.001987655368352305 -0.308945813608782 0.2855415556131706 -0.2499541601749119 -0.2270633565467569 0.06038164588851409 0.004514272420584768 -0.308945813608782 0.2855415556131706 0.007888073389842223 0.00198765536835226
16.3 0.02289699756739594 0.01980717244758354 -0.09887746907596218 0.412758802020895 0.07131883911373976 0.01106329269528608 -0.3255661236177562 -0.0490434290647747 -0.0988774690759622 0.4127588020208951 0.02289699756739599 0.01980717244758356 -0.3255661236177562 -0.04904342906477471 0.07131883911373979 0.01106329269528611 0.07131883911373978 0.01106329269528614 -0.3255661236177561 -0.04904342906477471 0.02289699756739599 0.01980717244758355 -0.09887746907596222 0.4127588020208951 -0.3255661236177562 -0.04904342906477473 0.07131883911373976 0.01106329269528611 -0.0988774690759622 0.412758802020895 0.02289699756739594 0.01980717244758353
16.4 0.0446778573739382 0.01263222367775747 0.1476483682362379 0.4009341239763617 0.08122404100288769 0.002913729224572267 -0.2915820207414213 0.1357675255065436 0.1476483682362379 0.4009341239763619 0.04467785737393817 0.01263222367775745 -0.2915820207414213 0.1357675255065437 0.08122404100288776 0.002913729224572378 0.08122404100288774 0.002913729224572323 -0.2915820207414213 0.1357675255065436 0.04467785737393817 0.01263222367775747 0.1476483682362379 0.4009341239763618 -0.2915820207414213 0.1357675255065436 0.08122404100288776 0.002913729224572364 0.1476483682362379 0.4009341239763619 0.04467785737393815 0.01263222367775751
16.5 0.04620320394825968 -0.009938014287845213 0.3471368131724589 0.2542942991048014 0.0769696294227756 -0.009312750168647715 -0.1642192069201567 0.2689552365528498 0.3471368131724589 0.2542942991048014 0.04620320394825966 -0.009938014287845204 -0.1642192069201567 0.2689552365528498 0.07696962942277563 -0.009312750168647726 0.07696962942277566 -0.009312750168647688 -0.1642192069201567 0.2689552365528498 0.04620320394825969 -0.009938014287845196 0.3471368131724588 0.2542942991048013 -0.1642192069201567 0.2689552365528498 0.07696962942277565 -0.009312750168647726 0.3471368131724588 0.2542942991048014 0.04620320394825969 -0.009938014287845198
16.6 0.02604090860237036 -0.01971870571593365 0.4337935290803628 0.02018807597965797 0.06378185747998225 -0.009607996738880034 0.01316084347287817 0.3082245598049776 0.4337935290803629 0.02018807597965799 0.02604090860237031 -0.01971870571593365 0.01316084347287815 0.3082245598049775 0.06378185747998225 -0.00960799673888002 0.06378185747998227 -0.009607996738879965 0.01316084347287816 0.3082245598049776 0.02604090860237032 -0.01971870571593365 0.4337935290803628 0.02018807597965796 0.01316084347287817 0.3082245598049777 0.06378185747998226 -0.00960799673888002 0.4337935290803628 0.02018807597965797 0.02604090860237032 -0.01971870571593366
16.7 0.009655472102010912 -0.004747913815702009 0.3757233202748007 -0.2259443341697235 0.05883896348183329 0.00296863016220475 0.178343478170881 0.242086045776053 0.3757233202748005 -0.2259443341697235 0.009655472102010912 -0.004747913815701995 0.178343478170881 0.242086045776053 0.05883896348183329 0.002968630162204743 0.05883896348183322 0.002968630162204725 0.178343478170881 0.242086045776053 0.009655472102010954 -0.004747913815701998 0.3757233202748006 -0.2259443341697235 0.1783434781708809 0.242086045776053 0.0588389634818333 0.002968630162204718 0.3757233202748005 -0.2259443341697235 0.00965547210201094 -0.00474791381570199
16.8 0.01744066944597825 0.01568407238856682 0.1881563698877147 -0.3996079394052143 0.06918462343837112 0.01207663484933502 0.2747131518593336 0.09922925571616034 0.1881563698877147 -0.3996079394052142 0.01744066944597822 0.01568407238856682 0.2747131518593336 0.0992292557161603 0.0691846234383711 0.01207663484933504 0.0691846234383711 0.01207663484933504 0.2747131518593336 0.09922925571616031 0.01744066944597825 0.01568407238856686 0.1881563698877148 -0.3996079394052143 0.2747131518593336 0.09922925571616037 0.06918462343837112 0.01207663484933499 0.1881563698877147 -0.3996079394052143 0.01744066944597822 0.01568407238856683
16.9 0.03888205040769177 0.01601673983913372 -0.06549514580217874 -0.4391396465723 0.08144759558033754 0.005414568858631438 0.2760197629387538 -0.06727991251699973 -0.06549514580217874 -0.4391396465723 0.03888205040769177 0.01601673983913371 0.2760197629387538 -0.0672799125169997 0.08144759558033755 0.005414568858631424 0.08144759558033754 0.00541456885863148 0.2760197629387537 -0.0672799125169997 0.03888205040769174 0.01601673983913371 -0.06549514580217874 -0.4391396465723 0.2760197629387538 -0.06727991251699972 0.08144759558033754 0.005414568858631466 -0.06549514580217874 -0.4391396465723 0.03888205040769169 0.01601673983913373
17 0.04707429641507303 -0.003385187375965069 -0.299026737964498 -0.3314287414243969 0.07952175247342805 -0.008571193414208578 0.1880345897106593 -0.2037818969395334 -0.299026737964498 -0.331428741424397 0.04707429641507302 -0.003385187375965069 0.1880345897106593 -0.2037818969395334 0.07952175247342808 -0.008571193414208596 0.07952175247342805 -0.008571193414208582 0.1880345897106593 -0.2037818969395334 0.04707429641507301 -0.00338518737596509 -0.299026737964498 -0.3314287414243969 0.1880345897106593 -0.2037818969395334 0.07952175247342808 -0.008571193414208585 -0.299026737964498 -0.3314287414243969 0.04707429641507301 -0.003385187375965118
17.1 0.03234443193199846 -0.01804059710218783 -0.4355044692701251 -0.1116776135901116 0.06552302115110743 -0.01184123223306607 0.04162618349477045 -0.2674333699079544 -0.4355044692701251 -0.1116776135901117 0.0323444319319985 -0.01804059710218782 0.04162618349477046 -0.2674333699079544 0.06552302115110746 -0.01184123223306607 0.06552302115110743 -0.01184123223306605 0.04162618349477043 -0.2674333699079544 0.03234443193199844 -0.01804059710218787 -0.4355044692701252 -0.1116776135901117 0.04162618349477043 -0.2674333699079544 0.06552302115110742 -0.01184123223306603 -0.4355044692701252 -0.1116776135901117 0.03234443193199836 -0.01804059710218788
17.2 0.01352714609191126 -0.009859824078869612 -0.4276932906319341 0.1496425967715239 0.05729794914124089 0.0003662398993315857 -0.1117831817837198 -0.238056955332545 -0.427693290631934 0.1496425967715239 0.01352714609191126 -0.009859824078869666 -0.1117831817837198 -0.238056955332545 0.05729794914124084 0.000366239899331558 0.05729794914124085 0.0003662398993316274 -0.1117831817837198 -0.2380569553325451 0.0135271460919113 -0.009859824078869678 -0.4276932906319339 0.1496425967715239 -0.1117831817837198 -0.238056955332545 0.05729794914124085 0.0003662398993315996 -0.427693290631934 0.1496425967715239 0.01352714609191126 -0.009859824078869619
17.3 0.01425386980565757 0.0102888432494354 -0.2741143569548 0.3642449711047305 0.06602937988035656 0.01260731851484417 -0.2180777538099626 -0.1309664256629837 -0.2741143569548 0.3642449711047304 0.01425386980565752 0.01028884324943532 -0.2180777538099627 -0.1309664256629837 0.06602937988035656 0.01260731851484412 0.06602937988035655 0.0126073185148442 -0.2180777538099626 -0.1309664256629837 0.01425386980565757 0.01028884324943537 -0.2741143569548 0.3642449711047304 -0.2180777538099626 -0.1309664256629837 0.06602937988035659 0.01260731851484415 -0.2741143569548001 0.3642449711047305 0.01425386980565754 0.01028884324943537
17.4 0.03282837976122704 0.01686668878435717 -0.02602998308447656 0.4568980486348536 0.08076556543784241 0.008685372862821221 -0.2458450267202007 0.01127774776932318 -0.02602998308447654 0.4568980486348535 0.03282837976122707 0.01686668878435717 -0.2458450267202007 0.01127774776932319 0.08076556543784244 0.008685372862821249 0.08076556543784243 0.008685372862821304 -0.2458450267202007 0.01127774776932319 0.03282837976122704 0.01686668878435716 -0.02602998308447655 0.4568980486348536 -0.2458450267202007 0.01127774776932318 0.08076556543784244 0.008685372862821249 -0.02602998308447655 0.4568980486348536 0.03282837976122702 0.01686668878435718
17.5 0.04555517927942848 0.002404151426407763 0.2319502736711077 0.3965075390149586 0.08240999583514158 -0.006644009754002735 -0.1927857707782601 0.1412125843732962 0.2319502736711076 0.3965075390149585 0.04555517927942848 0.002404151426407763 -0.1927857707782601 0.1412125843732962 0.08240999583514161 -0.0066440097540027 0.08240999583514161 -0.006644009754002721 -0.1927857707782601 0.1412125843732962 0.04555517927942848 0.002404151426407763 0.2319502736711076 0.3965075390149585 -0.1927857707782601 0.1412125843732962 0.08240999583514159 -0.006644009754002755 0.2319502736711076 0.3965075390149585 0.04555517927942848 0.002404151426407791
17.6 0.03702651166563913 -0.01449025303677764 0.4147076980090444 0.2032955287888743 0.06852600445540426 -0.01386808361213848 -0.07917451842545856 0.2183991237132451 0.4147076980090444 0.2032955287888743 0.0370265116656391 -0.01449025303677762 -0.07917451842545856 0.2183991237132451 0.06852600445540424 -0.01386808361213851 0.06852600445540424 -0.0138680836121385 -0.07917451842545857 0.2183991237132452 0.03702651166563913 -0.01449025303677764 0.4147076980090444 0.2032955287888743 -0.07917451842545853 0.2183991237132451 0.06852600445540424 -0.0138680836121385 0.4147076980090444 0.2032955287888743 0.03702651166563911 -0.01449025303677762
17.7 0.01847264061948316 -0.01279146255405944 0.4607337070803206 -0.0609570794808862 0.05651228750156122 -0.00334407193305826 0.05495711908153685 0.2180292791089053 0.4607337070803207 -0.0609570794808862 0.0184726406194832 -0.01279146255405944 0.05495711908153685 0.2180292791089053 0.05651228750156118 -0.003344071933058287 0.05651228750156119 -0.00334407193305826 0.05495711908153686 0.2180292791089053 0.01847264061948325 -0.01279146255405943 0.4607337070803205 -0.06095707948088619 0.05495711908153685 0.2180292791089053 0.05651228750156118 -0.003344071933058343 0.4607337070803207 -0.0609570794808862 0.01847264061948319 -0.01279146255405943
17.8 0.0134293055262821 0.004763347884574123 0.3509369466563293 -0.3080869956851258 0.06213727567416317 0.01193705848709268 0.1611240453103893 0.1443825785301506 0.3509369466563293 -0.308086995685126 0.0134293055262821 0.004763347884574207 0.1611240453103893 0.1443825785301507 0.06213727567416312 0.01193705848709268 0.06213727567416327 0.01193705848709264 0.1611240453103893 0.1443825785301506 0.01342930552628209 0.004763347884574165 0.3509369466563292 -0.3080869956851258 0.1611240453103893 0.1443825785301506 0.06213727567416314 0.01193705848709268 0.3509369466563293 -0.3080869956851259 0.01342930552628208 0.004763347884574193
17.9 0.02757573078789685 0.0155588264652094 0.1212587479156259 -0.4522421827889798 0.07863326548193714 0.01215651320259621 0.2057983659963569 0.02948375677378032 0.1212587479156259 -0.4522421827889798 0.02757573078789688 0.0155588264652094 0.2057983659963569 0.02948375677378032 0.07863326548193714 0.01215651320259619 0.07863326548193715 0.01215651320259616 0.2057983659963569 0.02948375677378034 0.02757573078789688 0.01555882646520943 0.1212587479156259 -0.4522421827889798 0.2057983659963569 0.02948375677378031 0.07863326548193714 0.01215651320259618 0.1212587479156259 -0.4522421827889798 0.02757573078789688 0.01555882646520941
18 0.04241538545741255 0.006627204910885642 -0.1495990917119317 -0.4447932849102669 0.0848828088976562 -0.003269871747981719 0.1810081239071179 -0.08620823274740338 -0.1495990917119317 -0.4447932849102668 0.04241538545741255 0.006627204910885635 0.1810081239071179 -0.08620823274740337 0.0848828088976562 -0.003269871747981698 0.0848828088976562 -0.003269871747981705 0.1810081239071178 -0.08620823274740334 0.04241538545741261 0.006627204910885649 -0.1495990917119317 -0.4447932849102669 0.1810081239071178 -0.08620823274740334 0.08488280889765623 -0.003269871747981705 -0.1495990917119317 -0.4447932849102669 0.04241538545741258 0.006627204910885622
18.1 0.03966520728766722 -0.01008604792559341 -0.3719261464829455 -0.2890636448285387 0.07270981805389333 -0.01489271707065841 0.09882218250008332 -0.1666599513416108 -0.3719261464829455 -0.2890636448285388 0.03966520728766723 -0.01008604792559339 0.09882218250008332 -0.1666599513416108 0.07270981805389334 -0.01489271707065844 0.07270981805389336 -0.01489271707065845 0.09882218250008333 -0.1666599513416109 0.03966520728766726 -0.01008604792559335 -0.3719261464829455 -0.2890636448285387 0.09882218250008333 -0.1666599513416108 0.07270981805389333 -0.01489271707065843 -0.3719261464829455 -0.2890636448285387 0.03966520728766723 -0.01008604792559338
18.2 0.02340863165845613 -0.01355973161507025 -0.4720421795420283 -0.0348152349905948 0.05717567112347793 -0.007743961236377453 -0.01139671978524005 -0.1861551073429972 -0.4720421795420283 -0.0348152349905948 0.02340863165845607 -0.01355973161507024 -0.01139671978524004 -0.1861551073429972 0.05717567112347793 -0.007743961236377467 0.05717567112347793 -0.007743961236377439 -0.01139671978524004 -0.1861551073429972 0.02340863165845611 -0.01355973161507024 -0.4720421795420283 -0.03481523499059481 -0.01139671978524004 -0.1861551073429972 0.05717567112347793 -0.007743961236377425 -0.4720421795420284 -0.03481523499059479 0.02340863165845613 -0.01355973161507024
18.3 0.01452703012096018 6.666466039700891e-05 -0.4134069325873234 0.234057039023262 0.05819374353562494 0.009603634945767948 -0.108910478624836 -0.1410733793138049 -0.4134069325873234 0.234057039023262 0.01452703012096018 6.66646603970783e-05 -0.108910478624836 -0.1410733793138049 0.05819374353562496 0.009603634945767945 0.05819374353562496 0.009603634945767924 -0.1089104786248361 -0.1410733793138049 0.01452703012096018 6.666466039698116e-05 -0.4134069325873233 0.2340570390232619 -0.1089104786248361 -0.1410733793138049 0.05819374353562498 0.009603634945767933 -0.4134069325873233 0.2340570390232619 0.01452703012096014 6.66646603969534e-05
18.4 0.02379956347306691 0.0128703556686327 -0.2142359960622661 0.424810191990117 0.07491020025956083 0.01499849728081493 -0.1610059482676276 -0.05374028865343292 -0.2142359960622662 0.4248101919901172 0.02379956347306691 0.01287035566863268 -0.1610059482676276 -0.05374028865343295 0.07491020025956081 0.01499849728081494 0.07491020025956083 0.01499849728081493 -0.1610059482676276 -0.05374028865343296 0.02379956347306689 0.01287035566863267 -0.2142359960622661 0.4248101919901171 -0.1610059482676276 -0.05374028865343295 0.07491020025956079 0.01499849728081497 -0.2142359960622661 0.4248101919901172 0.02379956347306691 0.01287035566863268
18.5 0.03862788390470853 0.008994783474671581 0.056794563561812 0.4727653793822602 0.0861184600822225 0.001335431901162448 -0.1564142791762912 0.04263293032695929 0.056794563561812 0.4727653793822602 0.03862788390470853 0.008994783474671589 -0.1564142791762912 0.04263293032695929 0.0861184600822225 0.001335431901162448 0.08611846008222249 0.001335431901162455 -0.1564142791762912 0.04263293032695929 0.0386278839047085 0.008994783474671586 0.05679456356181201 0.4727653793822602 -0.1564142791762912 0.04263293032695928 0.08611846008222249 0.001335431901162462 0.05679456356181201 0.4727653793822602 0.0386278839047085 0.008994783474671577
18.6 0.04038910778354533 -0.0058241266768531 0.3093106152507047 0.363390565953745 0.07753157437957878 -0.01425307402767353 -0.1015296343497281 0.1175288241149778 0.3093106152507049 0.3633905659537451 0.04038910778354529 -0.005824126676853128 -0.1015296343497281 0.1175288241149778 0.07753157437957879 -0.01425307402767353 0.0775315743795788 -0.01425307402767352 -0.1015296343497281 0.1175288241149778 0.04038910778354528 -0.005824126676853017 0.3093106152507047 0.363390565953745 -0.1015296343497282 0.1175288241149778 0.0775315743795788 -0.01425307402767353 0.3093106152507048 0.3633905659537451 0.04038910778354525 -0.005824126676853086
18.7 0.02748894650433428 -0.01267001823755754 0.4603665865011549 0.1318025736016828 0.05966671327469107 -0.01205298189930456 -0.01677934919319436 0.1473060822307646 0.4603665865011548 0.1318025736016828 0.02748894650433431 -0.01267001823755751 -0.01677934919319437 0.1473060822307645 0.05966671327469107 -0.01205298189930454 0.05966671327469108 -0.01205298189930458 -0.01677934919319436 0.1473060822307646 0.02748894650433426 -0.01267001823755753 0.4603665865011549 0.1318025736016828 -0.01677934919319436 0.1473060822307645 0.05966671327469108 -0.01205298189930455 0.4603665865011548 0.1318025736016828 0.02748894650433431 -0.01267001823755752
18.8 0.01676692704708124 -0.003247744474666046 0.4572793101509828 -0.1463725147353104 0.05508096877172772 0.005584892972022026 0.06572153513710235 0.1239253962102088 0.4572793101509826 -0.1463725147353104 0.01676692704708127 -0.00324774447466606 0.06572153513710237 0.1239253962102088 0.05508096877172775 0.005584892972022026 0.05508096877172768 0.005584892972022019 0.06572153513710235 0.1239253962102089 0.01676692704708134 -0.00324774447466613 0.4572793101509826 -0.1463725147353104 0.06572153513710235 0.1239253962102088 0.05508096877172774 0.005584892972022026 0.4572793101509827 -0.1463725147353104 0.01676692704708135 -0.003247744474666095
18.9 0.02167458158238048 0.009713315550868337 0.2991512442420136 -0.3758352262558742 0.06994075711242841 0.01638604829075053 0.1165674815986655 0.06171595407753666 0.2991512442420135 -0.3758352262558741 0.0216745815823805 0.009713315550868351 0.1165674815986654 0.0617159540775367 0.06994075711242846 0.0163860482907505 0.06994075711242846 0.0163860482907505 0.1165674815986655 0.06171595407753667 0.02167458158238053 0.009713315550868393 0.2991512442420134 -0.3758352262558741 0.1165674815986655 0.06171595407753669 0.06994075711242849 0.0163860482907505 0.2991512442420134 -0.375835226255874 0.02167458158238048 0.009713315550868254
19 0.03507751223421129 0.009725422107099865 0.04091494724769895 -0.4783516931958802 0.08550026816386855 0.00651513580400508 0.1234976174880378 -0.01301865168460149 0.04091494724769895 -0.4783516931958803 0.03507751223421141 0.009725422107099879 0.1234976174880378 -0.01301865168460147 0.08550026816386855 0.006515135804005097 0.08550026816386858 0.006515135804005066 0.1234976174880378 -0.01301865168460146 0.03507751223421135 0.009725422107099875 0.04091494724769894 -0.4783516931958802 0.1234976174880379 -0.01301865168460151 0.08550026816386855 0.006515135804005104 0.04091494724769894 -0.4783516931958801 0.03507751223421132 0.009725422107099872
19.1 0.03975317791886157 -0.002412870768502502 -0.2304391963697917 -0.4215172345631487 0.08213199362197539 -0.01165688601194139 0.0896967176888573 -0.07563596572953382 -0.2304391963697916 -0.4215172345631486 0.03975317791886163 -0.002412870768502551 0.0896967176888573 -0.07563596572953382 0.08213199362197539 -0.01165688601194139 0.08213199362197537 -0.01165688601194139 0.08969671768885731 -0.07563596572953385 0.03975317791886163 -0.00241287076850253 -0.2304391963697917 -0.4215172345631486 0.08969671768885729 -0.07563596572953382 0.08213199362197539 -0.0116568860119414 -0.2304391963697916 -0.4215172345631486 0.03975317791886163 -0.002412870768502523
19.2 0.03029652178678062 -0.01089938515125888 -0.4261088117627774 -0.2240242132217339 0.06389518099366358 -0.01535673298182908 0.02900076245399324 -0.1066211140643334 -0.4261088117627773 -0.2240242132217338 0.03029652178678066 -0.01089938515125884 0.02900076245399325 -0.1066211140643334 0.06389518099366359 -0.01535673298182909 0.06389518099366358 -0.01535673298182909 0.02900076245399326 -0.1066211140643334 0.03029652178678062 -0.01089938515125888 -0.4261088117627774 -0.2240242132217339 0.02900076245399323 -0.1066211140643333 0.06389518099366358 -0.01535673298182906 -0.4261088117627774 -0.2240242132217339 0.03029652178678065 -0.01089938515125889
19.3 0.01929759779898231 -0.005116037209374669 -0.4796004016481288 0.05023962846883816 0.0536083131101483 0.0003427368388111765 -0.03474659858700194 -0.09684626389626011 -0.4796004016481286 0.05023962846883814 0.0192975977989824 -0.005116037209374678 -0.03474659858700197 -0.09684626389626012 0.0536083131101483 0.0003427368388111626 0.05360831311014827 0.0003427368388111279 -0.03474659858700196 -0.09684626389626012 0.01929759779898241 -0.005116037209374698 -0.4796004016481287 0.05023962846883816 -0.03474659858700192 -0.09684626389626005 0.05360831311014831 0.0003427368388111904 -0.4796004016481287 0.05023962846883818 0.0192975977989824 -0.005116037209374678
19.4 0.02091291749072949 0.006861332529894862 -0.3707442818263753 0.3080385616749384 0.0644811212803192 0.01576046677315467 -0.07717071669422247 -0.05502985767318851 -0.3707442818263754 0.3080385616749385 0.02091291749072949 0.00686133252989489 -0.07717071669422244 -0.05502985767318853 0.06448112128031917 0.01576046677315466 0.06448112128031919 0.01576046677315468 -0.07717071669422246 -0.05502985767318852 0.0209129174907295 0.006861332529894834 -0.3707442818263753 0.3080385616749384 -0.07717071669422249 -0.05502985767318853 0.06448112128031919 0.01576046677315467 -0.3707442818263753 0.3080385616749384 0.02091291749072946 0.006861332529894876
19.5 0.03233039990800238 0.009393973099662015 -0.1376786835831531 0.4610336831451552 0.08282462375709521 0.01134789017637177 -0.08711601160265962 -0.001541752129532725 -0.1376786835831531 0.4610336831451551 0.03233039990800235 0.009393973099661994 -0.08711601160265961 -0.001541752129532722 0.08282462375709522 0.01134789017637176 0.08282462375709519 0.01134789017637178 -0.08711601160265962 -0.001541752129532718 0.03233039990800238 0.009393973099662008 -0.1376786835831531 0.4610336831451552 -0.08711601160265961 -0.001541752129532729 0.08282462375709521 0.01134789017637176 -0.1376786835831531 0.4610336831451552 0.03233039990800238 0.00939397309966199
19.6 0.03850418321348975 -0.0001238962184846801 0.1399975104889991 0.4598643527596826 0.08558271324919087 -0.007298334391237773 -0.06685556126564018 0.04456975353874124 0.139997510488999 0.4598643527596824 0.03850418321348967 -0.0001238962184846315 -0.06685556126564018 0.04456975353874126 0.08558271324919085 -0.00729833439123777 0.08558271324919087 -0.007298334391237761 -0.0668555612656402 0.04456975353874126 0.03850418321348964 -0.0001238962184846315 0.139997510488999 0.4598643527596824 -0.06685556126564018 0.04456975353874124 0.08558271324919087 -0.007298334391237771 0.139997510488999 0.4598643527596824 0.03850418321348964 -0.0001238962184846246
19.7 0.03188630433192408 -0.009023811773252732 0.3712765192914973 0.3058707406793363 0.06929720262662288 -0.01688006118363273 -0.02622855215880043 0.06903161031020726 0.3712765192914973 0.3058707406793363 0.03188630433192409 -0.009023811773252718 -0.02622855215880044 0.06903161031020724 0.06929720262662287 -0.01688006118363273 0.06929720262662285 -0.01688006118363273 -0.02622855215880043 0.06903161031020724 0.03188630433192406 -0.009023811773252746 0.3712765192914974 0.3058707406793363 -0.02622855215880042 0.06903161031020724 0.06929720262662287 -0.01688006118363273 0.3712765192914974 0.3058707406793363 0.03188630433192409 -0.009023811773252746
19.8 0.02145645476958222 -0.005894398447991615 0.4789388625559651 0.04854112881086271 0.05426257509214414 -0.005284241400265635 0.01783832653191743 0.06440443566238246 0.4789388625559653 0.04854112881086273 0.02145645476958219 -0.005894398447991635 0.0178383265319174 0.06440443566238245 0.05426257509214417 -0.005284241400265642 0.05426257509214415 -0.005284241400265628 0.01783832653191741 0.06440443566238246 0.02145645476958231 -0.005894398447991615 0.4789388625559652 0.04854112881086273 0.01783832653191743 0.06440443566238249 0.05426257509214415 -0.005284241400265649 0.4789388625559652 0.04854112881086271 0.02145645476958229 -0.005894398447991604
19.9 0.02093317668224717 0.004748718527836648 0.4246757227655201 -0.2254311075744667 0.05949956080214205 0.0130109069148094 0.04673943903706725 0.03651713899433446 0.4246757227655202 -0.2254311075744667 0.02093317668224709 0.00474871852783669 0.04673943903706726 0.03651713899433446 0.05949956080214203 0.01301090691480942 0.05949956080214208 0.01301090691480941 0.04673943903706723 0.03651713899433447 0.02093317668224713 0.004748718527836579 0.42467572276552 -0.2254311075744667 0.04673943903706729 0.03651713899433446 0.05949956080214203 0.01301090691480941 0.4246757227655201 -0.2254311075744667 0.02093317668224713 0.004748718527836676
20 0.03052613875865123 0.008694039028199547 0.2277590283768574 -0.4218425859257205 0.07838134819079663 0.01490388358413539 0.05208753576521691 0.001392464427126545 0.2277590283768574 -0.4218425859257204 0.03052613875865121 0.008694039028199547 0.05208753576521692 0.001392464427126552 0.07838134819079662 0.01490388358413539 0.0783813481907966 0.0149038835841354 0.05208753576521689 0.001392464427126556 0.03052613875865123 0.00869403902819952 0.2277590283768574 -0.4218425859257205 0.05208753576521689 0.001392464427126559 0.07838134819079662 0.01490388358413539 0.2277590283768575 -0.4218425859257206 0.03052613875865126 0.008694039028199547
