! Generated by Interconnect Studio
# GHZ S RI R 50
0.1 0.02037078454105751 0.02612580052578535 0.8076007140420287 -0.5427548920283182 0.04565912379203386 0.06216566420484704 -0.01109104834780014 -0.01466976090052644 0.8076007140420289 -0.5427548920283178 0.02037078454105734 0.02612580052578503 -0.01107260503028232 -0.01468368673648488 0.04573720739806783 0.0621082381887637 0.04565912379203391 0.06216566420484705 -0.01107260503028231 -0.01468368673648487 0.02037078454105751 0.02612580052578508 0.8069180306530563 -0.5437693242072952 -0.01109104834780015 -0.01466976090052643 0.04573720739806783 0.0621082381887637 0.8069180306530565 -0.5437693242072954 0.02043638143385948 0.02607452070165631
0.2 0.0501781382092788 0.01587137477888444 0.3672275625185544 -0.8830979468190714 0.1171796481512021 0.04499668384139791 -0.03071401090289226 -0.008076030390318329 0.3672275625185544 -0.8830979468190715 0.05017813820927908 0.01587137477888452 -0.03069361664287203 -0.008153197531566334 0.1172923669480885 0.0447020374622589 0.1171796481512021 0.0449966838413979 -0.03069361664287202 -0.008153197531566346 0.05017813820927897 0.0158713747788844 0.3650069378329784 -0.8840181003142246 -0.03071401090289227 -0.008076030390318331 0.1172923669480885 0.04470203746225891 0.3650069378329785 -0.8840181003142247 0.05025728220059952 0.01561895250426929
0.3 0.05071043117888274 -0.01481032889947915 -0.175581215083672 -0.9303367299808181 0.1286937756964808 -0.02549732715308899 -0.04003621918942454 0.01175000636767454 -0.1755812150836719 -0.9303367299808178 0.05071043117888308 -0.01481032889947919 -0.04008023106327296 0.01159899023789085 0.128596738753654 -0.02598230892149944 0.1286937756964808 -0.025497327153089 -0.04008023106327298 0.01159899023789086 0.05071043117888274 -0.01481032889947911 -0.1790872459206186 -0.9296681948901058 -0.04003621918942455 0.01175000636767457 0.128596738753654 -0.02598230892149943 -0.1790872459206186 -0.9296681948901058 0.0505973235779557 -0.01519225194652187
0.4 0.02190386045069997 -0.02603653566077809 -0.6570888943414839 -0.677156653218928 0.06888091450332307 -0.06293131952998093 -0.03872170681156202 0.03767505773783615 -0.6570888943414838 -0.677156653218928 0.0219038604507002 -0.02603653566077802 -0.03891059233555946 0.03747994607847981 0.06856371834438957 -0.06327675629636753 0.06888091450332308 -0.06293131952998092 -0.03891059233555948 0.03747994607847981 0.0219038604507002 -0.02603653566077816 -0.6604843395474415 -0.6738452235329367 -0.03872170681156198 0.0376750577378361 0.06856371834438958 -0.06327675629636755 -0.6604843395474413 -0.6738452235329367 0.02164101020953077 -0.02625541789744926
0.5 0.00133840496068266 -0.001816869857605791 -0.9193964307832514 -0.1958968605304844 0.0120594056266541 -0.02166475256232071 -0.01788034655700688 0.06875953908808248 -0.9193964307832513 -0.1958968605304848 0.001338404960682882 -0.001816869857605791 -0.01831201969736975 0.06864583704207661 0.0119230448249843 -0.02174009590034468 0.01205940562665403 -0.0216647525623208 -0.01831201969736965 0.0686458370420765 0.00133840496068266 -0.001816869857604847 -0.9206091308619512 -0.1901162935581398 -0.01788034655700666 0.06875953908808226 0.01192304482498435 -0.02174009590034464 -0.9206091308619512 -0.1901162935581401 0.001315468426759844 -0.001833544855315081
0.6 0.01833440364097166 0.02562151335053879 -0.8635502974165906 0.3470552268015844 0.02956991668323943 0.04530349590503598 0.03122111008141636 0.08246716577007182 -0.8635502974165906 0.3470552268015845 0.01833440364097155 0.0256215133505389 0.03059844075256599 0.08270022109024938 0.02991065325368576 0.04507925837687564 0.02956991668323939 0.04530349590503597 0.03059844075256598 0.08270022109024937 0.01833440364097166 0.02562151335053892 -0.8609090416122421 0.353556316149029 0.03122111008141637 0.08246716577007182 0.02991065325368572 0.04507925837687565 -0.8609090416122421 0.3535563161490288 0.01871866777456298 0.02534213447970482
0.7 0.0495137480400541 0.01818104725196218 -0.5200109142852247 0.7567878054030428 0.09639927188467329 0.05349954879026346 0.08418603061544759 0.0555387625563531 -0.5200109142852247 0.7567878054030427 0.04951374804005415 0.01818104725196217 0.0836942354045631 0.05627714329211837 0.09686614287323109 0.0526495176190601 0.09639927188467329 0.05349954879026347 0.08369423540456311 0.05627714329211839 0.04951374804005404 0.01818104725196206 -0.5133338284146051 0.7613327222625556 0.08418603061544762 0.05553876255635309 0.09686614287323111 0.05264951761906012 -0.513333828414605 0.7613327222625556 0.04982592690740229 0.01730718729228529
0.8 0.05313006470877191 -0.01338586672855665 -0.01868019117876651 0.9091501675813847 0.1286049312327769 -0.003575808647648346 0.1102907850883617 -0.000570139518575957 -0.01868019117876651 0.9091501675813848 0.05313006470877202 -0.01338586672855663 0.1102909434510895 0.0005386345202369903 0.1285624852310962 -0.004868483960747766 0.128604931232777 -0.003575808647648317 0.1102909434510895 0.0005386345202370254 0.05313006470877224 -0.01338586672855664 -0.009539626823074398 0.9092920170527242 0.1102907850883617 -0.0005701395185759486 0.1285624852310962 -0.004868483960747766 -0.009539626823074396 0.909292017052724 0.05285020523081129 -0.01445133250237201
0.9 0.02451666185628731 -0.02823696570937356 0.4831317736474128 0.7664082961386325 0.08890983818498024 -0.05457225613474652 0.1029673985361939 -0.06460448718095388 0.4831317736474127 0.7664082961386326 0.02451666185628737 -0.02823696570937344 0.1036914572826406 -0.06343584642635211 0.08828696749492579 -0.05557429114496804 0.08890983818498026 -0.05457225613474655 0.1036914572826406 -0.06343584642635215 0.02451666185628726 -0.02823696570937331 0.4917685641050737 0.7608953058442735 0.1029673985361939 -0.06460448718095389 0.08828696749492577 -0.05557429114496808 0.4917685641050737 0.7608953058442735 0.02387173961379662 -0.02878424897159828
1 -0.0001975024393410796 -0.005724942319944012 0.8250938641127918 0.3676634789065461 0.02710052195773226 -0.03700837036928024 0.059097989614262 -0.1239019976315912 0.8250938641127921 0.3676634789065463 -0.0001975024393410796 -0.005724942319943999 0.06065028092930464 -0.1231495871562006 0.02663333355636589 -0.0373459945837127 0.02710052195773225 -0.03700837036928023 0.06065028092930454 -0.1231495871562007 -0.0001975024393410796 -0.005724942319943971 0.8296487921094167 0.3572662873398909 0.05909798961426179 -0.1239019976315911 0.02663333355636584 -0.03734599458371276 0.8296487921094167 0.3572662873398907 -0.000341308412861953 -0.005718171066655826
1.1 0.01343964362926633 0.02598352878940577 0.8823272682223856 -0.1540150784795844 0.0210501169458972 0.02611374883395373 -0.02370728377353238 -0.1519712814758541 0.8823272682223855 -0.1540150784795843 0.01343964362926658 0.0259835287894055 -0.02160438557631533 -0.1522844582391849 0.02140906495192021 0.0258202873625225 0.02105011694589742 0.02611374883395395 -0.02160438557631553 -0.1522844582391847 0.01343964362926664 0.02598352878940501 0.8801140901702353 -0.1661963926554017 -0.02370728377353277 -0.1519712814758543 0.02140906495192071 0.0258202873625226 0.8801140901702356 -0.166196392655402 0.01415275751637999 0.02560209452201295
1.2 0.04820175164418988 0.02339775274676712 0.6403651796409988 -0.6095334178699771 0.07605824832824783 0.05407883172855388 -0.1153379141428087 -0.1197259021495013 0.6403651796409988 -0.6095334178699771 0.04820175164418994 0.02339775274676704 -0.1135194450725236 -0.1214514786849142 0.07686505949751626 0.05292579530181802 0.07605824832824783 0.05407883172855387 -0.1135194450725236 -0.1214514786849142 0.04820175164418994 0.02339775274676727 0.6311011738333375 -0.6191202299901762 -0.1153379141428087 -0.1197259021495014 0.07686505949751624 0.052925795301818 0.6311011738333374 -0.6191202299901762 0.04888538419211203 0.02193360224761573
1.3 0.05781436884904062 -0.01007140537133069 0.1972673414926761 -0.8519346273204578 0.121379945925982 0.01491934569440683 -0.1711549602823785 -0.03668849811129038 0.1972673414926762 -0.851934627320458 0.05781436884904073 -0.01007140537133063 -0.1705327953914283 -0.03947951391430704 0.1216074654990259 0.01293454613996004 0.121379945925982 0.01491934569440685 -0.1705327953914283 -0.03947951391430704 0.05781436884904079 -0.01007140537133056 0.1833241941856976 -0.8550434217473407 -0.1711549602823785 -0.0366884981112904 0.1216074654990259 0.01293454613996002 0.1833241941856975 -0.8550434217473405 0.05745451318756745 -0.01195463784253747
1.4 0.02981710088570561 -0.03151173323691445 -0.3023933349470131 -0.8155512354545709 0.1029701169880579 -0.04090992968484643 -0.1733020564177772 0.06491012742038797 -0.3023933349470133 -0.8155512354545711 0.02981710088570577 -0.03151173323691464 -0.1744171373787002 0.06185135074500031 0.1022344942707488 -0.04271505028157664 0.1029701169880578 -0.0409099296848464 -0.1744171373787001 0.06185135074500031 0.02981710088570583 -0.03151173323691463 -0.3166937257367776 -0.8101053207767571 -0.1733020564177772 0.06491012742038797 0.1022344942707488 -0.04271505028157662 -0.3166937257367776 -0.810105320776757 0.02869010739814036 -0.03254115201258256
1.5 -0.001327724504462446 -0.01255270810649067 -0.7014810834471141 -0.5091024553410188 0.0448469993159796 -0.04479001135512721 -0.1193978029340973 0.1597893434861192 -0.7014810834471141 -0.5091024553410189 -0.001327724504462446 -0.01255270810649096 -0.1223883720065322 0.1575104949989214 0.04399481052444369 -0.04562735047927049 0.04484699931597977 -0.04479001135512709 -0.1223883720065322 0.1575104949989214 -0.001327724504462335 -0.01255270810649112 -0.7109522539411934 -0.495790190589051 -0.1193978029340973 0.1597893434861193 0.04399481052444379 -0.04562735047927056 -0.7109522539411935 -0.4957901905890509 -0.001799894981412274 -0.01249374688483797
1.6 0.005995029398557283 0.02450881594110845 -0.8593202630657977 -0.03111259371113878 0.02044020532545618 0.007199917855301136 -0.01049547765044759 0.2152252679504585 -0.8593202630657975 -0.03111259371113875 0.00599502939855695 0.02450881594110848 -0.01482042549198139 0.2149707561592844 0.02058082708063302 0.006787515565137858 0.02044020532545626 0.00719991785530108 -0.01482042549198138 0.2149707561592837 0.005995029398557339 0.02450881594110836 -0.8597720886101027 -0.01382981019131365 -0.01049547765044762 0.2152252679504583 0.02058082708063272 0.006787515565137198 -0.8597720886101023 -0.0138298101913137 0.006975475336431852 0.02424799332224276
1.7 0.04399742103920984 0.03022898545241383 -0.7224662602605301 0.44559865106397 0.05891674812872618 0.04767003576549318 0.1204745654506572 0.1934265226222596 -0.7224662602605303 0.4455986510639702 0.04399742103920973 0.03022898545241394 0.1163152523384566 0.1959558691330917 0.05992159412214988 0.04640062583422225 0.05891674812872608 0.04767003576549315 0.1163152523384565 0.1959558691330917 0.04399742103920989 0.03022898545241388 -0.7127828861666055 0.46092972591586 0.1204745654506572 0.1934265226222596 0.05992159412214978 0.04640062583422227 -0.7127828861666056 0.4609297259158602 0.04524842933900838 0.02832215143552009
1.8 0.06275172428900344 -0.003400401827140836 -0.353047408699707 0.7606149037078687 0.1091473815825317 0.02781527119191292 0.2157523070947069 0.096020721144083 -0.353047408699707 0.7606149037078687 0.06275172428900322 -0.003400401827140898 0.2135253633215536 0.1008759442291223 0.1097485736358903 0.02533951070344487 0.1091473815825317 0.0278152711919129 0.2135253633215536 0.1008759442291222 0.06275172428900316 -0.003400401827140988 -0.3357538591818901 0.7684053946821143 0.2157523070947068 0.09602072114408298 0.1097485736358903 0.02533951070344481 -0.3357538591818902 0.7684053946821143 0.06253374452910047 -0.006234775777706977
1.9 0.03825991476477741 -0.03350213891758286 0.122772584140886 0.8234107871756843 0.1099510831241373 -0.02491248637927943 0.2418165944403897 -0.03845954846045008 0.1227725841408859 0.8234107871756843 0.03825991476477747 -0.03350213891758289 0.242665848663379 -0.03267549704306941 0.1093249881892026 -0.02753033990344931 0.1099510831241373 -0.02491248637927945 0.2426658486633791 -0.03267549704306943 0.03825991476477741 -0.03350213891758285 0.1423955652924295 0.8202450456046414 0.2418165944403897 -0.03845954846045008 0.1093249881892026 -0.02753033990344923 0.1423955652924295 0.8202450456046414 0.03661710833101472 -0.03529025031557289
2 0.0002326600725631733 -0.02167441016767906 0.5556568859047453 0.6147157248124872 0.06202079288349564 -0.04517742601601469 0.1919365502529069 -0.1721037634060976 0.5556568859047455 0.6147157248124869 0.0002326600725629513 -0.02167441016767898 0.1962009186339634 -0.1672260273663091 0.060865893024778 -0.04672174694535961 0.06202079288349567 -0.04517742601601468 0.1962009186339634 -0.1672260273663091 0.0002326600725630623 -0.02167441016767902 0.5709292683404266 0.600557880422333 0.191936550252907 -0.1721037634060976 0.06086589302477795 -0.04672174694535957 0.5709292683404267 0.600557880422333 -0.0008566497480283794 -0.02165872429381175
2.1 -0.002425272807859979 0.01938120741594149 0.7975010780465487 0.1991863497609112 0.02632291684114613 -0.008453627522584689 0.06787677005517979 -0.2645942462736835 0.7975010780465488 0.1991863497609113 -0.002425272807860174 0.01938120741594142 0.07483480401408275 -0.2627111021301467 0.02609069166009048 -0.009145248931250179 0.02632291684114635 -0.008453627522584523 0.07483480401408238 -0.2627111021301466 -0.00242527280786009 0.01938120741594129 0.8024791984331873 0.1780738821346695 0.06787677005517989 -0.2645942462736836 0.02609069166009122 -0.009145248931250615 0.8024791984331875 0.1780738821346693 -0.001399454486156859 0.01948216302758681
2.2 0.03587175850751212 0.03647355244401448 0.7635996886135226 -0.27414222916825 0.0471200037361994 0.03670614130200906 -0.09808426265173234 -0.2682634926545147 0.7635996886135228 -0.2741422291682499 0.03587175850751195 0.03647355244401444 -0.09063131009014191 -0.2708722756253904 0.04811664720726861 0.03538960049101625 0.04712000373619946 0.03670614130200875 -0.09063131009014205 -0.2708722756253902 0.03587175850751159 0.03647355244401454 0.7557299218718759 -0.2951452717756709 -0.09808426265173255 -0.2682634926545149 0.04811664720726853 0.03538960049101633 0.7557299218718758 -0.2951452717756711 0.03783260811207572 0.03443540111201882
2.3 0.0655476266564658 0.006672526032892701 0.4791364749989285 -0.6413487686215422 0.09495555536075251 0.03417730572484826 -0.2382819136289404 -0.1715371211494941 0.4791364749989284 -0.6413487686215422 0.06554762665646569 0.006672526032892596 -0.233225207026487 -0.178351498738806 0.0959035741906281 0.0314189461621706 0.09495555536075254 0.0341773057248482 -0.233225207026487 -0.178351498738806 0.06554762665646574 0.006672526032892652 0.460402262580366 -0.6549272946653293 -0.2382819136289404 -0.1715371211494941 0.0959035741906282 0.03141894616217056 0.460402262580366 -0.6549272946653294 0.06582363761493228 0.002874490405815225
2.4 0.04888084364831397 -0.03207525940497184 0.04666909215408396 -0.7919566659497823 0.1102671788038833 -0.009739034489408237 -0.3007733838330981 -0.0128850336933075 0.04666909215408396 -0.7919566659497824 0.04888084364831402 -0.03207525940497184 -0.3002480605091126 -0.02194891059269418 0.1099233562086263 -0.01305968123596112 0.1102671788038833 -0.009739034489408195 -0.3002480605091126 -0.02194891059269417 0.04888084364831402 -0.03207525940497184 0.02276663943277124 -0.7930038114875109 -0.3007733838330981 -0.01288503369330751 0.1099233562086263 -0.01305968123596115 0.02276663943277123 -0.7930038114875109 0.046858387182578 -0.03496356235160771
2.5 0.005961301242750294 -0.03127337010569076 -0.3968716771869129 -0.6813310002265736 0.0758754544907345 -0.03982350900405562 -0.26911348077987 0.1585515672074824 -0.3968716771869128 -0.6813310002265736 0.005961301242750405 -0.03127337010569081 -0.2739609146013513 0.1500202728706939 0.07458712788724847 -0.04218716412728941 0.07587545449073443 -0.03982350900405565 -0.2739609146013511 0.1500202728706939 0.00596130124275035 -0.03127337010569074 -0.4180769688722473 -0.6685287638699552 -0.2691134807798699 0.1585515672074824 0.07458712788724846 -0.04218716412728942 -0.4180769688722474 -0.6685287638699553 0.00398586682010875 -0.0315859724556122
2.6 -0.009473912111643279 0.0100356253213252 -0.7029661039304076 -0.342018337331684 0.03613264480607184 -0.01897432608150875 -0.1429530089146639 0.2938848106841371 -0.7029661039304074 -0.3420183373316839 -0.009473912111643001 0.01003562532132529 -0.152476976703714 0.2890581538097517 0.03549353120305178 -0.02014453557834356 0.03613264480607167 -0.01897432608150884 -0.1524769767037139 0.2890581538097516 -0.009473912111643085 0.01003562532132549 -0.7137635582503405 -0.3188721832647661 -0.1429530089146638 0.2938848106841373 0.03549353120305223 -0.02014453557834334 -0.7137635582503407 -0.3188721832647664 -0.008798379955476127 0.01063284046942478
2.7 0.02425908869368104 0.0396974336747601 -0.7640389399603957 0.1053061350385686 0.04135221259345766 0.02420628895846705 0.04918321450309576 0.3357474551897717 -0.7640389399603955 0.1053061350385685 0.02425908869368143 0.03969743367476 0.03776545034547208 0.337222646059646 0.04214955520189594 0.02278957892980193 0.04135221259345759 0.02420628895846688 0.03776545034547193 0.3372226460596456 0.02425908869368126 0.03969743367476005 -0.7600269374022027 0.1311637841616144 0.04918321450309577 0.3357474551897718 0.04214955520189573 0.02278957892980141 -0.7600269374022027 0.1311637841616145 0.02689499392383742 0.03796115022554785
2.8 0.06415745944738255 0.01879038652693329 -0.5703903315534807 0.5024647726168543 0.0817667595645251 0.03460630354734602 0.23473682269977 0.255864743975724 -0.5703903315534807 0.5024647726168544 0.0641574594473826 0.01879038652693335 0.2255905727006176 0.263964082120188 0.08293354994231102 0.03170844538699577 0.08176675956452502 0.0346063035473461 0.2255905727006176 0.263964082120188 0.06415745944738271 0.01879038652693343 -0.5523612879027613 0.5222192888787234 0.23473682269977 0.2558647439757238 0.08293354994231103 0.03170844538699583 -0.5523612879027613 0.5222192888787233 0.06531988545199092 0.01423273666983572
2.9 0.05962838556668298 -0.02597704813446504 -0.1973993056047942 0.7255878569829823 0.1056684698250075 0.00218914771653652 0.3431627705240938 0.08531549696879671 -0.1973993056047942 0.7255878569829823 0.05962838556668298 -0.02597704813446508 0.3398265066866792 0.09776178419982459 0.1056780711781491 -0.001662274029573501 0.1056684698250075 0.002189147716536541 0.3398265066866792 0.09776178419982456 0.05962838556668276 -0.02597704813446512 -0.1708318768585062 0.7322982274342957 0.3431627705240939 0.08531549696879671 0.1056780711781491 -0.001662274029573468 -0.1708318768585063 0.7322982274342962 0.05757841625145429 -0.03025024590054741
3 0.01607465478489806 -0.03895116485462417 0.2349253492441192 0.7082822875048547 0.08490996405795509 -0.03128950584821981 0.3431591614558412 -0.1189139781481675 0.2349253492441192 0.7082822875048544 0.016074654784898 -0.03895116485462422 0.3473972270414074 -0.1058957550331446 0.08367032601433394 -0.03446754585409415 0.08490996405795503 -0.03128950584821986 0.3473972270414074 -0.1058957550331446 0.01607465478489806 -0.03895116485462424 0.2614537171539992 0.6989246542345874 0.3431591614558411 -0.1189139781481674 0.08367032601433397 -0.03446754585409408 0.2614537171539992 0.6989246542345873 0.01309491826728723 -0.04005135310521762
3.1 -0.01281708293011652 -0.002665500211022742 0.5837873838420187 0.4534505317094388 0.04697252228555469 -0.02400237980018413 0.2289008890053833 -0.2988334348192679 0.5837873838420188 0.4534505317094387 -0.01281708293011657 -0.002665500211022673 0.2403655627570837 -0.2896919657046203 0.04600209100244337 -0.02581355669686272 0.04697252228555472 -0.02400237980018412 0.2403655627570837 -0.2896919657046203 -0.01281708293011657 -0.002665500211022673 0.6010045140733344 0.4303703850221994 0.2289008890053833 -0.2988334348192679 0.04600209100244325 -0.02581355669686284 0.6010045140733346 0.4303703850221994 -0.01298566454099476 -0.00165982608763654
3.2 0.01092947340238515 0.03805133576807372 0.7269330064879079 0.0512201887002099 0.04079848628576811 0.01289088902728384 0.02277353104601418 -0.3881585870131629 0.7269330064879078 0.05122018870020989 0.0109294734023852 0.03805133576807376 0.03835969731392135 -0.3869292648667758 0.04128373813186505 0.01124030555560399 0.04079848628576804 0.01289088902728386 0.0383596973139213 -0.3869292648667756 0.01092947340238515 0.03805133576807385 0.7284044782124497 0.02195494869233118 0.02277353104601419 -0.3881585870131629 0.04128373813186503 0.01124030555560402 0.7284044782124501 0.02195494869233131 0.01395111777014067 0.03705028819795859
3.3 0.05757555604385622 0.0306063440613777 0.6240931836612443 -0.3535294417787442 0.07167366539356693 0.0309225110492687 -0.2033972979000682 -0.3407218979595581 0.6240931836612442 -0.3535294417787444 0.05757555604385625 0.03060634406137783 -0.1890970789366435 -0.3488612435909748 0.0728940051674956 0.02792454137819027 0.07167366539356701 0.03092251104926876 -0.1890970789366436 -0.3488612435909746 0.0575755560438562 0.03060634406137773 0.6089003212924398 -0.3790986241425595 -0.2033972979000683 -0.3407218979595582 0.07289400516749552 0.0279245413781904 0.60890032129244 -0.3790986241425595 0.05991316766269533 0.02573140670823097
3.4 0.06799792379766884 -0.01526210824925086 0.322209264914436 -0.6307879486485686 0.09863629811964351 0.009731133389163309 -0.3632075708416372 -0.1732310077308949 0.3222092649144361 -0.6307879486485686 0.06799792379766895 -0.01526210824925076 -0.3554769493207233 -0.1885864789898156 0.09896192503204145 0.005509233861211701 0.09863629811964358 0.009731133389163267 -0.3554769493207232 -0.1885864789898155 0.067997923797669 -0.01526210824925075 0.2949725835180483 -0.6439747056598253 -0.3632075708416371 -0.1732310077308948 0.09896192503204133 0.00550923386121174 0.2949725835180483 -0.6439747056598252 0.06644723612647495 -0.02100986435362998
3.5 0.02943523837209333 -0.04248120832014055 -0.07936290603976554 -0.6973360307911355 0.08908387308881399 -0.02226572057385276 -0.4065977178404331 0.05497490466524806 -0.07936290603976565 -0.6973360307911358 0.02943523837209339 -0.04248120832014064 -0.4086216544003909 0.0370444037755909 0.08801874132778782 -0.02616103843980173 0.08908387308881402 -0.02226572057385261 -0.4086216544003908 0.0370444037755909 0.02943523837209372 -0.04248120832014067 -0.1099467100346262 -0.6931722236552575 -0.406597717840433 0.05497490466524799 0.08801874132778777 -0.02616103843980184 -0.1099467100346262 -0.6931722236552574 0.02558940525373735 -0.04490288027644942
3.6 -0.01088438577479728 -0.01668673781752548 -0.4491314291337498 -0.5297454514087971 0.05642327436700119 -0.02455572283651067 -0.3182042656651519 0.2772749280424254 -0.4491314291337498 -0.5297454514087973 -0.01088438577479711 -0.0166867378175258 -0.330418053064277 0.2626009341522673 0.05525505151548613 -0.02708225796233374 0.05642327436700126 -0.02455572283651064 -0.330418053064277 0.2626009341522673 -0.01088438577479728 -0.01668673781752572 -0.4726288661527713 -0.5088921681487941 -0.318204265665152 0.2772749280424255 0.05525505151548626 -0.02708225796233378 -0.4726288661527713 -0.508892168148794 -0.01234758644242553 -0.01563503059582159
3.7 -0.001552608071929751 0.03088784466158585 -0.6578624079191674 -0.187160407213978 0.04359329279464748 0.00449280343887748 -0.1123231011399076 0.4192630131826121 -0.6578624079191675 -0.187160407213978 -0.001552608071929806 0.03088784466158582 -0.1316885611329442 0.4135892601838009 0.04375500066560169 0.002461783128844531 0.04359329279464765 0.004492803438877452 -0.1316885611329442 0.4135892601838012 -0.001552608071929695 0.03088784466158591 -0.6658504349505899 -0.1563814696753333 -0.1123231011399077 0.4192630131826123 0.04375500066560167 0.002461783128844366 -0.6658504349505898 -0.1563814696753331 0.001322258196077009 0.03089856263527796
3.8 0.04620269983949127 0.03950252813811811 -0.6402726854226732 0.2044251837510153 0.06545473024565769 0.02549359071969737 0.1450721715287529 0.4176839959238658 -0.6402726854226731 0.2044251837510154 0.04620269983949132 0.03950252813811808 0.1249690469294598 0.4241327536426991 0.06659702973522674 0.02234010988694086 0.06545473024565776 0.02549359071969744 0.1249690469294598 0.4241327536426991 0.04620269983949155 0.03950252813811803 -0.6297847812665824 0.2347549716938933 0.1450721715287529 0.4176839959238661 0.06659702973522674 0.02234010988694085 -0.6297847812665825 0.2347549716938933 0.04975908375624879 0.03491665484406496
3.9 0.0717972562691469 -0.001335874182198687 -0.4158385449082889 0.5156939583009629 0.09161313582411151 0.01314742863590322 0.3568786753890058 0.2695551270229792 -0.4158385449082889 0.5156939583009629 0.07179725626914696 -0.001335874182198757 0.3432448757863568 0.2867146851805718 0.09214721895495026 0.0086435857218954 0.09161313582411157 0.01314742863590315 0.3432448757863568 0.2867146851805719 0.07179725626914685 -0.001335874182198812 -0.3900758010340621 0.5354463778075195 0.3568786753890059 0.2695551270229792 0.09214721895495015 0.008643585721895324 -0.3900758010340621 0.5354463778075197 0.07132190766335059 -0.008355600209961666
4 0.04384972155090711 -0.04048972903633132 -0.06112973147951929 0.6525288699175968 0.08959679826426034 -0.01483916190333927 0.4526731703968915 0.02958560447557178 -0.06112973147951928 0.652528869917597 0.04384972155090705 -0.0404897290363313 0.450614916014577 0.05229249137814834 0.0887380500478982 -0.0193221494378032 0.08959679826426034 -0.01483916190333923 0.450614916014577 0.05229249137814838 0.04384972155090716 -0.04048972903633132 -0.02826665381437294 0.6547761193177655 0.4526731703968914 0.02958560447557177 0.08873805004789817 -0.01932214943780312 -0.02826665381437294 0.6547761193177654 0.03956470641147462 -0.04468613033259244
4.1 -0.003355786444705744 -0.02940766212896911 0.3085269301090527 0.5696588239738636 0.0631110904276997 -0.02251516467690223 0.4032091509797454 -0.229117632152945 0.3085269301090527 0.5696588239738639 -0.003355786444705688 -0.02940766212896916 0.4144735083025949 -0.2080485994005203 0.06186782800038886 -0.02573546646003538 0.06311109042769969 -0.02251516467690212 0.4144735083025948 -0.2080485994005203 -0.003355786444705688 -0.02940766212896921 0.3374545705291889 0.5530139737499971 0.4032091509797454 -0.2291176321529449 0.06186782800038885 -0.0257354664600354 0.3374545705291889 0.5530139737499969 -0.006362916490647729 -0.02890649041802069
4.2 -0.01059442380528586 0.01898195693341642 0.5641799168886645 0.2962531625979326 0.04753111099810214 -0.000549367115565455 0.2126189332912381 -0.424761680815388 0.5641799168886644 0.2962531625979327 -0.01059442380528583 0.01898195693341646 0.2347308533846203 -0.4129536569063716 0.04743594364682214 -0.003056070561539686 0.04753111099810217 -0.0005493671155653995 0.2347308533846202 -0.4129536569063716 -0.01059442380528597 0.01898195693341648 0.5790229256545918 0.266077745285423 0.212618933291238 -0.4247616808153878 0.04743594364682194 -0.003056070561539676 0.5790229256545917 0.2660777452854229 -0.008535485734221401 0.01999254831353402
4.3 0.03176724524715518 0.04338425759228429 0.6216356161668759 -0.06442983671345905 0.06257544655464042 0.02046048827869033 -0.06301229091838619 -0.4790063365220008 0.6216356161668761 -0.06442983671345906 0.03176724524715513 0.04338425759228429 -0.03704961889489404 -0.481710436854709 0.06358916673794845 0.01705098137024609 0.06257544655464041 0.02046048827869018 -0.03704961889489398 -0.481710436854709 0.03176724524715518 0.04338425759228424 0.617248506129435 -0.09790977901657823 -0.06301229091838616 -0.4790063365220006 0.06358916673794841 0.01705098137024587 0.6172485061294347 -0.0979097790165782 0.03626136588129245 0.03970472291616739
4.4 0.06981730783963525 0.013412384662098 0.475454676824931 -0.3894694744237696 0.08630897940387722 0.01379731495358122 -0.322337868107731 -0.3662690042825725 0.4754546768249311 -0.3894694744237697 0.06981730783963527 0.01341238466209795 -0.3016038269317588 -0.3835229019165632 0.08693957363965396 0.009006462181254574 0.08630897940387719 0.01379731495358124 -0.3016038269317588 -0.3835229019165631 0.06981730783963519 0.01341238466209795 0.4532044926802152 -0.415149742908623 -0.3223378681077311 -0.3662690042825727 0.08693957363965414 0.009006462181254648 0.4532044926802152 -0.4151497429086229 0.07087102539614933 0.005625504030469889
4.5 0.05666600488629037 -0.03288036920988217 0.1792861288681544 -0.579914726292629 0.08834079604634751 -0.01000530905231141 -0.475803715276878 -0.1293580215967007 0.1792861288681544 -0.579914726292629 0.05666600488629048 -0.03288036920988219 -0.4677320410759048 -0.1560429779697279 0.08763410230585772 -0.01498220839466196 0.08834079604634751 -0.01000530905231141 -0.4677320410759049 -0.1560429779697278 0.05666600488629042 -0.03288036920988216 0.1462236185203991 -0.5891207509181662 -0.4758037152768781 -0.1293580215967007 0.08763410230585773 -0.01498220839466199 0.1462236185203991 -0.589120750918166 0.05259322377466747 -0.03906542719770257
4.6 0.008730425564385191 -0.03835288407887325 -0.1712533666948365 -0.5743628301001495 0.0669071945093713 -0.01993140420026314 -0.4765792537423524 0.1562394427483817 -0.1712533666948364 -0.5743628301001495 0.008730425564385247 -0.03835288407887318 -0.4848096815296157 0.1284450126049855 0.06564394263563979 -0.02376355078177377 0.06690719450937119 -0.01993140420026338 -0.4848096815296157 0.1284450126049855 0.008730425564385413 -0.03835288407887329 -0.2041500603062491 -0.5635096530512361 -0.4765792537423524 0.1562394427483817 0.06564394263563975 -0.02376355078177391 -0.204150060306249 -0.563509653051236 0.004248016330118175 -0.03910394359859126
4.7 -0.01431292454531752 0.004316467224388276 -0.4543010719289581 -0.374537697928378 0.05078169205674671 -0.002971972747149164 -0.3160830618885391 0.4024672251933497 -0.4543010719289581 -0.374537697928378 -0.01431292454531741 0.004316467224388603 -0.3392886022592723 0.3831078356606893 0.05051771813439741 -0.005964312588190647 0.05078169205674674 -0.002971972747149186 -0.3392886022592723 0.3831078356606893 -0.01431292454531752 0.00431646722438849 -0.4756169952845247 -0.3470683288947722 -0.3160830618885389 0.4024672251933497 0.05051771813439723 -0.005964312588190602 -0.4756169952845246 -0.3470683288947724 -0.01370449172265833 0.005973157034831194
4.8 0.01683929463990524 0.04129090643525554 -0.5731676756159898 -0.05855890276740166 0.06159542283867308 0.01712366627245443 -0.03748460309242115 0.5183317376113667 -0.5731676756159898 -0.05855890276740169 0.01683929463990513 0.04129090643525548 -0.06866251159750439 0.5151294450769995 0.06251565354723589 0.01337942909272662 0.06159542283867303 0.01712366627245461 -0.06866251159750442 0.5151294450769996 0.01683929463990536 0.04129090643525551 -0.5756553531728281 -0.02390070768460578 -0.03748460309242113 0.5183317376113665 0.06251565354723589 0.01337942909272654 -0.5756553531728281 -0.02390070768460578 0.02168605349577567 0.03896428983047077
4.9 0.06220004322569295 0.02627371891301365 -0.500885365436111 0.2615071310472096 0.08329754283692142 0.0135286379801971 0.2601778632455975 0.455129828935143 -0.500885365436111 0.2615071310472096 0.06220004322569278 0.02627371891301377 0.2316777743764041 0.4702776739008278 0.08397218360633701 0.008377175457849757 0.08329754283692142 0.01352863798019704 0.2316777743764042 0.4702776739008278 0.06220004322569284 0.02627371891301377 -0.4838439255337872 0.2918341731543171 0.2601778632455975 0.455129828935143 0.0839721836063371 0.00837717545784971 -0.4838439255337871 0.2918341731543171 0.06495642265377018 0.01843412159075884
5 0.0654981404074067 -0.02088713517339126 -0.269792976259253 0.4871562364741535 0.0872028230472392 -0.007547173809686503 0.4720589539088647 0.2375070551456787 -0.2697929762592529 0.4871562364741533 0.06549814040740676 -0.02088713517339136 0.4562142620104621 0.2666792161900768 0.08655685723105735 -0.01300779174971983 0.08720282304723934 -0.00754717380968653 0.456214262010462 0.2666792161900767 0.06549814040740659 -0.02088713517339139 -0.2386718082687914 0.5031353860664068 0.4720589539088647 0.2375070551456788 0.08655685723105741 -0.01300779174971987 -0.2386718082687914 0.503135386066407 0.06236381581577224 -0.02893152760357338
5.1 0.02325194993035845 -0.04185639962283663 0.04578942753059888 0.547291023565306 0.06874517756435344 -0.01836636379088195 0.5317096690505718 -0.06235726569005678 0.04578942753059879 0.5472910235653056 0.02325194993035851 -0.04185639962283658 0.5346117358212426 -0.02817610101499243 0.06742777924007293 -0.02273141755380621 0.06874517756435344 -0.01836636379088204 0.5346117358212428 -0.02817610101499246 0.02325194993035823 -0.04185639962283654 0.0807464729265473 0.5432348877407105 0.5317096690505718 -0.06235726569005683 0.06742777924007298 -0.02273141755380621 0.08074647292654731 0.5432348877407105 0.0177108558904307 -0.04448524416678956
5.2 -0.01203100289972264 -0.01046605214506498 0.3370541129661515 0.4204174025220451 0.05239530781967484 -0.004233510737107454 0.414980099826484 -0.3522897069189586 0.3370541129661515 0.4204174025220452 -0.01203100289972256 -0.01046605214506477 0.4370984719042628 -0.3244402051411059 0.05200704154714787 -0.007645817431309997 0.05239530781967473 -0.004233510737107482 0.4370984719042626 -0.3244402051411058 -0.01203100289972267 -0.01046605214506476 0.3637874426895891 0.3975109607949841 0.4149800998264838 -0.3522897069189587 0.05200704154714775 -0.00764581743130992 0.3637874426895891 0.3975109607949843 -0.01329232528832281 -0.008808936752285302
5.3 0.004116028078307188 0.0336420934488823 0.5015277104565389 0.1585441010090764 0.06080740163616147 0.01567148773664026 0.1496619425084286 -0.5311632588618822 0.501527710456539 0.1585441010090765 0.004116028078307243 0.03364209344888227 0.1846803925392698 -0.5200252467060732 0.06171556415763076 0.01158985600973878 0.06080740163616141 0.01567148773664032 0.1846803925392698 -0.5200252467060733 0.004116028078307299 0.03364209344888241 0.5109672965916429 0.1248146551266406 0.1496619425084286 -0.5311632588618822 0.0617155641576308 0.01158985600973872 0.510967296591643 0.1248146551266405 0.008547571706008209 0.03279742606814437
5.4 0.05039223633835338 0.03496576255543026 0.4945272041594403 -0.1405885995420433 0.08201586962383751 0.01397541696336074 -0.173368951406047 -0.5284531978929867 0.4945272041594402 -0.1405885995420434 0.05039223633835321 0.03496576255543035 -0.1371374687257135 -0.5389924770777976 0.08277473206720352 0.008382057065945674 0.08201586962383756 0.01397541696336067 -0.1371374687257135 -0.5389924770777978 0.05039223633835316 0.03496576255543035 0.483856253178292 -0.1737971122752343 -0.173368951406047 -0.5284531978929867 0.0827747320672035 0.008382057065945619 0.4838562531782918 -0.1737971122752343 0.05465974681858938 0.0278261408030451
5.5 0.06886699129231966 -0.006741901343488932 0.3297174935836805 -0.3829173242023978 0.08743334989049195 -0.006300410244662375 -0.4395764976192958 -0.3462678723706363 0.3297174935836804 -0.3829173242023978 0.06886699129231988 -0.006741901343489131 -0.4146137433574862 -0.3757983242570764 0.08678949683030386 -0.01232351744701564 0.08743334989049203 -0.006300410244662416 -0.4146137433574861 -0.3757983242570762 0.06886699129231977 -0.006741901343489001 0.3024860149092476 -0.4047734101120663 -0.4395764976192957 -0.3462678723706363 0.08678949683030389 -0.01232351744701559 0.3024860149092477 -0.4047734101120665 0.06728112983294345 -0.01616679596532337
5.6 0.0375670516830644 -0.03948427401910142 0.06072864192502315 -0.4938893721728898 0.0701395845446966 -0.0184502789006654 -0.5631547353311434 -0.04715469815828834 0.06072864192502317 -0.4938893721728899 0.03756705168306446 -0.03948427401910139 -0.5584452739847179 -0.08663542836751495 0.06866867886316348 -0.02333638049918448 0.0701395845446966 -0.0184502789006655 -0.5584452739847175 -0.08663542836751489 0.03756705168306457 -0.03948427401910135 0.02585119104312962 -0.4969370139333965 -0.5631547353311434 -0.04715469815828832 0.06866867886316347 -0.02333638049918442 0.02585119104312962 -0.4969370139333965 0.03165676786446656 -0.0443637274735656
5.7 -0.00441530670080903 -0.02276251774579335 -0.221109671964076 -0.4346011764690929 0.05247803526049165 -0.005900803617094913 -0.501895478752273 0.2761292813125581 -0.221109671964076 -0.4346011764690929 -0.004415306700809196 -0.0227625177457933 -0.5203702788597949 0.2395020343745384 0.05192116723052983 -0.009641372389253715 0.05247803526049166 -0.005900803617094871 -0.520370278859795 0.2395020343745384 -0.004415306700809252 -0.02276251774579341 -0.2516458367019094 -0.4176625940816065 -0.5018954787522731 0.2761292813125581 0.05192116723052995 -0.009641372389253767 -0.2516458367019095 -0.4176625940816067 -0.007619817008533839 -0.02189898481999172
5.8 -0.004286455469358963 0.02207500890127077 -0.4143900143060343 -0.2316837405198189 0.05887897762927 0.01529609505082011 -0.2659396899985927 0.5150824024411136 -0.4143900143060343 -0.2316837405198189 -0.004286455469358907 0.02207500890127075 -0.3027421635512102 0.4943490491842672 0.05983652624814493 0.01096789209588025 0.05887897762927004 0.01529609505082002 -0.3027421635512101 0.4943490491842673 -0.004286455469358907 0.02207500890127077 -0.4301611479998738 -0.2008925741017842 -0.2659396899985927 0.5150824024411136 0.05983652624814485 0.01096789209588014 -0.4301611479998736 -0.2008925741017842 -0.001034506997762956 0.0224635151691262
5.9 0.03671738866418522 0.03822181740745921 -0.4609519903756116 0.03416428072149186 0.08113663688372229 0.01600126350485316 0.06691791151976828 0.5798032609184783 -0.4609519903756116 0.03416428072149183 0.03671738866418528 0.0382218174074592 0.02378591176472828 0.5831672647323316 0.08209900845691183 0.009947215135135417 0.08113663688372227 0.0160012635048532 0.02378591176472828 0.5831672647323316 0.03671738866418545 0.0382218174074592 -0.4571549758865797 0.0682148336551192 0.06691791151976827 0.5798032609184782 0.08209900845691186 0.009947215135135457 -0.4571549758865797 0.06821483365511918 0.04196136388315606 0.03237773768056327
6 0.06656343920584543 0.006939198456143991 -0.3587116668185802 0.2760946821223023 0.08927747476761275 -0.004703130695242558 0.3787983838605439 0.4476127898128318 -0.3587116668185801 0.2760946821223023 0.06656343920584543 0.006939198456144047 0.3440049383008313 0.4748747494277071 0.08866955674606444 -0.01141475561169483 0.08927747476761286 -0.004703130695242572 0.3440049383008314 0.4748747494277072 0.06656343920584556 0.006939198456143922 -0.3368952007679439 0.3023308735599224 0.378798383860544 0.4476127898128319 0.08866955674606444 -0.01141475561169489 -0.336895200767944 0.3023308735599225 0.06685050548271532 -0.003139081207852469
6.1 0.04920570368239197 -0.03210599717327026 -0.1430271675325052 0.421214569214735 0.07256380449501848 -0.01977069259507436 0.5670690151871043 0.1655659947715349 -0.1430271675325052 0.421214569214735 0.04920570368239185 -0.03210599717327023 0.5527247783804841 0.208505841582928 0.07083668164885902 -0.02526955760313951 0.07256380449501847 -0.01977069259507433 0.5527247783804843 0.2085058415829281 0.04920570368239188 -0.03210599717327035 -0.1103506289930937 0.4309306471486502 0.5670690151871045 0.165565994771535 0.07083668164885902 -0.02526955760313952 -0.1103506289930937 0.4309306471486503 0.04372567067276001 -0.0392436243686377
6.2 0.006754078939309072 -0.03065992029273764 0.1144512757417769 0.4199708803353355 0.05202136464149119 -0.009065980356559922 0.5701622944765421 -0.177728067796526 0.1144512757417769 0.4199708803353356 0.006754078939308905 -0.03065992029273766 0.5822657248101081 -0.1328116479711065 0.05115792469441278 -0.01308744130643225 0.05202136464149124 -0.009065980356559866 0.582265724810108 -0.1328116479711065 0.006754078939309016 -0.03065992029273765 0.1467915472415036 0.4097888194021432 0.5701622944765422 -0.177728067796526 0.05115792469441274 -0.01308744130643223 0.1467915472415037 0.4097888194021433 0.001914037069740844 -0.03133663601555058
6.3 -0.007331243019109229 0.008958691338442556 0.3198371144523922 0.2763473175432281 0.05529994579720965 0.014614235193758 0.3784951959943066 -0.4697752453827805 0.319837114452392 0.276347317543228 -0.007331243019109174 0.008958691338442556 0.4144620805875686 -0.4383703666082414 0.05628251103921936 0.01019503931296778 0.05529994579720962 0.014614235193758 0.4144620805875688 -0.4383703666082414 -0.007331243019109146 0.008958691338442668 0.3406903885581763 0.2501872875240645 0.3784951959943065 -0.4697752453827806 0.05628251103921942 0.01019503931296784 0.3406903885581763 0.2501872875240645 -0.005826970150955514 0.01000258434418806
6.4 0.02372470165821278 0.03605160454656136 0.4063228489595307 0.05213499913842386 0.0791561926452849 0.01945763253253918 0.0526642188697318 -0.604477105377426 0.4063228489595309 0.05213499913842388 0.02372470165821278 0.03605160454656138 0.1010565330004753 -0.5982922931248192 0.08046352300775693 0.0130354809289477 0.07915619264528495 0.01945763253253909 0.1010565330004752 -0.5982922931248191 0.02372470165821272 0.03605160454656138 0.4091979065548678 0.0193232759351748 0.0526642188697318 -0.6044771053774259 0.0804635230077569 0.0130354809289477 0.4091979065548678 0.01932327593517482 0.02919236435871477 0.03178656197673613
6.5 0.05962956739197911 0.01785293836694891 0.3589166049286983 -0.175009748138212 0.09197553791513888 -0.00143465869379221 -0.2924418352726532 -0.5339830377952479 0.3589166049286981 -0.1750097481382119 0.05962956739197917 0.01785293836694885 -0.247898810527257 -0.5560632081066414 0.09155183017240294 -0.008934215826266932 0.09197553791513885 -0.001434658693792099 -0.2478988105272569 -0.5560632081066414 0.05962956739197905 0.01785293836694886 0.3434407987570984 -0.2037104783412721 -0.2924418352726532 -0.5339830377952478 0.09155183017240297 -0.00893421582626688 0.3434407987570984 -0.2037104783412721 0.0617392072912611 0.007917259547049102
6.6 0.05648715439635077 -0.02160114830976233 0.1981121516256764 -0.3373433719617168 0.07688461096127386 -0.02111336504502642 -0.541590133690556 -0.285261037127445 0.1981121516256764 -0.3373433719617168 0.05648715439635077 -0.02160114830976225 -0.5160965994731507 -0.3291474323555176 0.07487123429421372 -0.02741014158029731 0.07688461096127391 -0.02111336504502642 -0.5160965994731508 -0.3291474323555177 0.05648715439635063 -0.02160114830976225 0.1694846281686391 -0.3525959955002244 -0.541590133690556 -0.2852610371274452 0.0748712342942137 -0.02741014158029721 0.1694846281686391 -0.3525959955002243 0.05214511087772643 -0.03063161163972803
6.7 0.01909862514410243 -0.03336589326416126 -0.02384970378096177 -0.3813555611288404 0.05246149243418544 -0.01396040828789599 -0.6142845948319857 0.06246674496970756 -0.02384970378096173 -0.3813555611288404 0.01909862514410249 -0.03336589326416125 -0.617361783652762 0.01058705625221304 0.05110165521955535 -0.01832271873408918 0.05246149243418539 -0.01396040828789616 -0.6173617836527622 0.01058705625221308 0.01909862514410232 -0.03336589326416119 -0.05583541117517389 -0.3779990466036013 -0.6142845948319855 0.06246674496970753 0.05110165521955539 -0.01832271873408907 -0.0558354111751739 -0.3779990466036013 0.01323654644743924 -0.0360947939993447
6.8 -0.005231423218661102 -0.003249804821151378 -0.2258246193448906 -0.2930601036881843 0.05052346267111674 0.0122337439394758 -0.4797640473872098 0.3969506271819501 -0.2258246193448908 -0.2930601036881845 -0.005231423218661102 -0.003249804821151225 -0.5118922017000248 0.3545556591343622 0.05138323334797106 0.007877061746890212 0.05052346267111668 0.01223374393947593 -0.5118922017000247 0.354555659134362 -0.005231423218661102 -0.003249804821151309 -0.2500125509521179 -0.2727172664911569 -0.4797640473872101 0.3969506271819503 0.05138323334797104 0.007877061746890313 -0.2500125509521182 -0.272717266491157 -0.005707910546856032 -0.002312742410519375
6.9 0.01352967354292517 0.02962604846653009 -0.3377595546863959 -0.114736529119585 0.07498669370744748 0.02330223245010038 -0.1779566842417302 0.5997572331928385 -0.3377595546863958 -0.114736529119585 0.01352967354292511 0.02962604846652996 -0.2292267260855357 0.5820931439911884 0.07672294333423074 0.0167208922149952 0.07498669370744748 0.0233022324501005 -0.2292267260855358 0.5820931439911884 0.01352967354292511 0.02962604846652993 -0.346426774974689 -0.08505573159404377 -0.1779566842417302 0.5997572331928384 0.07672294333423073 0.01672089221499531 -0.346426774974689 -0.08505573159404375 0.0184386596588443 0.02684717199081895
7 0.04998421419494803 0.02456926192307548 -0.3345824771945763 0.08671184634283122 0.09410858208537418 0.004076003656797667 0.1852040363716304 0.5989455414229516 -0.3345824771945765 0.08671184634283126 0.04998421419494814 0.02456926192307543 0.1318698826960165 0.6129001800591316 0.09410280332244514 -0.004207307308367267 0.09410858208537416 0.004076003656797653 0.1318698826960165 0.6129001800591313 0.04998421419494808 0.02456926192307547 -0.3256711111075546 0.115770055419408 0.1852040363716304 0.5989455414229516 0.09410280332244515 -0.004207307308367256 -0.3256711111075548 0.115770055419408 0.05351286196435566 0.01544162894629134
7.1 0.05888271624792105 -0.01029794114879316 -0.225473696052258 0.2506299910024418 0.08303407682451092 -0.02096446711895757 0.4870578711788661 0.3983631501820547 -0.225473696052258 0.2506299910024417 0.05888271624792105 -0.01029794114879304 0.4496252482199531 0.4401769024646848 0.08083580767745199 -0.02827965687229285 0.08303407682451101 -0.0209644671189576 0.4496252482199531 0.4401769024646848 0.05888271624792094 -0.01029794114879302 -0.2022449973024483 0.2697234529429778 0.4870578711788661 0.3983631501820545 0.08083580767745206 -0.0282796568722928 -0.2022449973024482 0.2697234529429778 0.05611988439253615 -0.02058592821335851
7.2 0.03028745523220489 -0.03131122474767747 -0.04564338116726976 0.3251578024956227 0.05511311184217686 -0.0198718637882361 0.6303576392959678 0.06294896807109254 -0.04564338116726977 0.325157802495623 0.0302874552322048 -0.03131122474767749 0.6220915471602503 0.1196471184432249 0.05309216919632705 -0.02477029748257149 0.05511311184217681 -0.0198718637882361 0.6220915471602501 0.119647118443225 0.03028745523220505 -0.0313112247476775 -0.01607722266101761 0.327951883177504 0.630357639295968 0.06294896807109258 0.05309216919632705 -0.02477029748257157 -0.0160772226610176 0.327951883177504 0.02415785139807185 -0.03625080627339289
7.3 0.0007238970567885195 -0.01262071544796989 0.1396847565153641 0.2843781641713744 0.04578667739367079 0.007286566557918095 0.5628914926902321 -0.3001988547292512 0.1396847565153642 0.2843781641713746 0.0007238970567884639 -0.01262071544796994 0.5880247112448764 -0.2473724396313612 0.04626165246402275 0.003061599296614125 0.04578667739367076 0.007286566557918164 0.5880247112448762 -0.2473724396313611 0.000723897056788575 -0.01262071544797011 0.1651481468931363 0.2703865030618222 0.5628914926902322 -0.3001988547292512 0.04626165246402267 0.003061599296614119 0.1651481468931366 0.2703865030618223 -0.00159079398700134 -0.01254096726167387
7.4 0.007335875325894414 0.02085842834897961 0.262749909900113 0.1521733302344494 0.06836693627540233 0.02600351494734538 0.3011914399417976 -0.564980531365221 0.262749909900113 0.1521733302344494 0.007335875325894581 0.02085842834897952 0.3523526222942511 -0.5345717106977377 0.07048616577221065 0.01954280430322575 0.06836693627540229 0.0260035149473453 0.3523526222942511 -0.5345717106977377 0.00733587532589447 0.02085842834897959 0.2757450689632262 0.1271176405131325 0.3011914399417975 -0.564980531365221 0.07048616577221065 0.01954280430322572 0.2757450689632263 0.1271176405131325 0.01106634184593007 0.01914223545293495
7.5 0.03983583651402767 0.02679468241100557 0.291504398856578 -0.01649896640554073 0.09414697873310357 0.01143072697236216 -0.0632832706042795 -0.6376691822099411 0.291504398856578 -0.0164989664055408 0.03983583651402783 0.02679468241100557 -0.002992446016330916 -0.6407946656656162 0.09480487754434642 0.002519983628839874 0.09414697873310356 0.01143072697236205 -0.002992446016330925 -0.6407946656656159 0.03983583651402783 0.02679468241100557 0.2886580021161703 -0.04385873070994041 -0.06328327060427949 -0.6376691822099411 0.0948048775443464 0.002519983628839897 0.2886580021161703 -0.04385873070994041 0.04415105714392318 0.01885558350603446
7.6 0.05702476019563735 -0.0003262702916227572 0.2270060512196842 -0.1689241941184412 0.09001891541537599 -0.01809616461311048 -0.4059917057215539 -0.4974193628795815 0.2270060512196842 -0.1689241941184412 0.05702476019563746 -0.0003262702916228405 -0.3567080068341507 -0.5338676666952523 0.08788305432061025 -0.0265978395653872 0.09001891541537597 -0.01809616461311049 -0.3567080068341507 -0.5338676666952523 0.0570247601956374 -0.0003262702916228405 0.2098630734681203 -0.1898015306667283 -0.4059917057215538 -0.4974193628795816 0.08788305432061028 -0.02659783956538721 0.2098630734681203 -0.1898015306667283 0.05592572051505362 -0.01114645739888975
7.7 0.03862578705540354 -0.02590799224477354 0.09110532927343837 -0.2587994137319574 0.06065844213191958 -0.02538266581892159 -0.6164242795899761 -0.1909539942355564 0.09110532927343822 -0.2587994137319573 0.03862578705540357 -0.02590799224477343 -0.5950927412199929 -0.2496136008510117 0.05792247743846558 -0.0311241535360708 0.06065844213191958 -0.02538266581892159 -0.595092741219993 -0.2496136008510117 0.03862578705540362 -0.02590799224477355 0.06567651999694024 -0.2663905259034526 -0.616424279589976 -0.1909539942355563 0.05792247743846563 -0.03112415353607084 0.0656765199969402 -0.2663905259034525 0.03292222524663315 -0.03285274071694143
7.8 0.008616666853085819 -0.01817505393138992 -0.06763534751403485 -0.2546773348288362 0.04268272080003727 -0.0002267108199886791 -0.6221710353248634 0.184782579617959 -0.06763534751403472 -0.2546773348288361 0.008616666853086125 -0.01817505393138999 -0.6372676573483431 0.1230094785991486 0.04245566236751337 -0.004402588514221 0.0426827208000371 -0.0002267108199887069 -0.6372676573483433 0.1230094785991487 0.008616666853086041 -0.01817505393138992 -0.09223363711597259 -0.2468360615737143 -0.6221710353248631 0.184782579617959 0.0424556623675133 -0.004402588514220993 -0.09223363711597257 -0.2468360615737142 0.004911450908161894 -0.01950531166228111
7.9 0.005250705939251366 0.01182994731673287 -0.1886319667885882 -0.16501850542307 0.05998423553671154 0.02608275644606344 -0.4147547880958568 0.5014946777276469 -0.1886319667885881 -0.1650185054230701 0.00525070593925131 0.01182994731673265 -0.4624164918501785 0.4579185889462987 0.0622739911689936 0.02000921589249475 0.05998423553671162 0.02608275644606341 -0.4624164918501787 0.4579185889462989 0.005250705939251366 0.01182994731673315 -0.2040584147269461 -0.145510444318339 -0.4147547880958569 0.501494677727647 0.0622739911689937 0.02000921589249465 -0.2040584147269461 -0.145510444318339 0.007480968121027293 0.01056185032791799
8 0.03107893192603139 0.0252908587953048 -0.2364024817595199 -0.03232242304897454 0.09100711824230566 0.01937827937624063 -0.06616917681617876 0.6471914924408819 -0.2364024817595199 -0.03232242304897457 0.03107893192603134 0.02529085879530477 -0.1307883377845565 0.637282981530136 0.09249246219678485 0.01014680832227336 0.09100711824230562 0.01937827937624066 -0.1307883377845566 0.637282981530136 0.03107893192603145 0.02529085879530481 -0.2384528234488791 -0.008433469219408607 -0.06616917681617877 0.6471914924408817 0.09249246219678491 0.01014680832227327 -0.2384528234488791 -0.008433469219408614 0.03550368538763093 0.01857460288035965
8.1 0.05238342488183778 0.006910265792350101 -0.2066554089029853 0.09888991797579216 0.09624750694620511 -0.01203453980877831 0.3028236288830221 0.5760205028119405 -0.2066554089029854 0.09888991797579216 0.05238342488183767 0.006910265792350129 0.2427256944252245 0.6038095785389592 0.09452648795599598 -0.02175214510051414 0.09624750694620512 -0.01203453980877824 0.2427256944252245 0.6038095785389592 0.05238342488183778 0.006910265792350052 -0.1955373887103224 0.1193767294009485 0.3028236288830221 0.5760205028119407 0.09452648795599594 -0.02175214510051415 -0.1955373887103223 0.1193767294009485 0.05269877104925057 -0.003822892304361502
8.199999999999999 0.04341432520719773 -0.01905048779977127 -0.1119536997029325 0.1900205880788844 0.06885664003090292 -0.02884531400125578 0.5726752612353956 0.313725353106752 -0.1119536997029324 0.1900205880788845 0.04341432520719776 -0.01905048779977118 0.537367173618659 0.3709677516039345 0.06552431340619254 -0.03577503834831547 0.06885664003090294 -0.02884531400125579 0.5373671736186593 0.3709677516039346 0.04341432520719771 -0.01905048779977128 -0.09181396288917439 0.2005284293799879 0.5726752612353956 0.313725353106752 0.06552431340619254 -0.0357750383483155 -0.09181396288917436 0.2005284293799879 0.0385972738844822 -0.02753134880988992
8.300000000000001 0.01648032412839032 -0.02001085683940237 0.01430740279042955 0.2098068687287759 0.04262089938712182 -0.009378569612642579 0.6534674088811137 -0.057316026262123 0.01430740279042955 0.2098068687287758 0.01648032412839048 -0.02001085683940236 0.65588347961433 0.01102916611878584 0.04141285965082871 -0.01376494417304725 0.04262089938712181 -0.009378569612642773 0.65588347961433 0.01102916611878579 0.0164803241283904 -0.02001085683940233 0.03607303592930168 0.2071771223355146 0.6534674088811138 -0.057316026262123 0.04141285965082872 -0.01376494417304728 0.03607303592930169 0.2071771223355145 0.01197896268093004 -0.02298999625734523
8.4 0.006416239843490101 0.004230959224950925 0.1221206771145235 0.1557489544722199 0.05129180734220291 0.02262393931035286 0.5116496136515241 -0.4125440525600068 0.1221206771145235 0.1557489544722199 0.006416239843490129 0.004230959224950953 0.552268059512032 -0.356339603321329 0.05339001028917997 0.01709382729728639 0.05129180734220295 0.02262393931035293 0.552268059512032 -0.356339603321329 0.006416239843490046 0.004230959224950981 0.137850908889605 0.1420152228333608 0.5116496136515239 -0.4125440525600068 0.05339001028917996 0.01709382729728636 0.1378509088896051 0.1420152228333608 0.00716038441874303 0.002792497926267632
8.5 0.02484995721430755 0.02151125202373188 0.1763389378763274 0.05848801468247551 0.08444169834934874 0.02620107828192319 0.1955796101350576 -0.626514323897323 0.1763389378763275 0.0584880146824755 0.02484995721430749 0.02151125202373191 0.2612583761835023 -0.6020927194569458 0.0867537746101147 0.01704932591498243 0.08444169834934878 0.02620107828192315 0.2612583761835022 -0.6020927194569458 0.02484995721430761 0.0215112520237319 0.1815694200647668 0.03935498151686806 0.1955796101350576 -0.6265143238973232 0.08675377461011467 0.01704932591498246 0.1815694200647668 0.03935498151686806 0.02884560942993258 0.01575389329014291
8.6 0.04674056057594184 0.01099312254957544 0.1698855793299427 -0.04552565761841292 0.1000469829905084 -0.003261946586257093 -0.1834576961349697 -0.6292594072101205 0.1698855793299427 -0.04552565761841296 0.046740560575942 0.0109931225495754 -0.1145151475395567 -0.6453761762085557 0.09911147694042965 -0.01403403861051237 0.1000469829905084 -0.00326194658625709 -0.1145151475395566 -0.6453761762085555 0.04674056057594184 0.01099312254957545 0.163984050366542 -0.06358401364527581 -0.1834576961349698 -0.6292594072101206 0.09911147694042963 -0.01403403861051233 0.163984050366542 -0.0635840136452758 0.04801062425462464 0.0007132356023961779
8.699999999999999 0.04498404840065229 -0.01252687358542391 0.1098907437604345 -0.1261359036462198 0.0785651039746869 -0.02893261740010055 -0.5014245017420522 -0.4238366108139403 0.1098907437604345 -0.1261359036462197 0.04498404840065237 -0.01252687358542391 -0.4521861375584429 -0.4760164919553625 0.07493921621553713 -0.03733210126921529 0.0785651039746869 -0.02893261740010055 -0.4521861375584428 -0.4760164919553626 0.04498404840065223 -0.01252687358542381 0.09547200500746962 -0.1373729886576091 -0.5014245017420522 -0.4238366108139403 0.07493921621553709 -0.03733210126921528 0.09547200500746961 -0.1373729886576091 0.04119569549192413 -0.02198640137162271
8.800000000000001 0.02283915364731746 -0.01911209197104774 0.01763943100655931 -0.1565772249289957 0.04634416242255855 -0.01855673439972635 -0.6545681882778642 -0.07470045137339794 0.01763943100655931 -0.1565772249289957 0.02283915364731748 -0.01911209197104764 -0.642326108994558 -0.1464815355076063 0.04401318433643379 -0.02355787313824356 0.04634416242255857 -0.01855673439972644 -0.6423261089945581 -0.1464815355076065 0.02283915364731744 -0.01911209197104767 0.000252009270325983 -0.1575674883471465 -0.6545681882778643 -0.07470045137339788 0.04401318433643378 -0.0235578731382435 0.0002520092703259418 -0.1575674883471464 0.01809022549854029 -0.02365676943810199
8.9 0.009392764280529875 -0.001030534314422321 -0.06884995395790425 -0.1285280233040721 0.04408915290761446 0.01560337423535614 -0.5859459998095857 0.303078178833122 -0.06884995395790425 -0.1285280233040721 0.009392764280529819 -0.001030534314422432 -0.6161110662419288 0.2357885731580106 0.04555515562436473 0.01058520135280818 0.04408915290761442 0.01560337423535619 -0.6161110662419288 0.2357885731580107 0.009392764280529931 -0.00103053431442246 -0.08276451866528466 -0.1200408404859004 -0.5859459998095856 0.3030781788331219 0.04555515562436475 0.01058520135280818 -0.08276451866528474 -0.1200408404859003 0.008930172606363454 -0.003088371581166427
9 0.0213493528705419 0.01709059086708505 -0.118201406294059 -0.06270643739201101 0.07515918588986259 0.03023598058722317 -0.3174357461923714 0.576589492370243 -0.118201406294059 -0.06270643739201102 0.02134935287054202 0.01709059086708506 -0.3804795534450405 0.5370811904011764 0.07809134065182211 0.02156061828656449 0.07515918588986259 0.03023598058722321 -0.3804795534450405 0.5370811904011765 0.02134935287054213 0.01709059086708507 -0.1245230760455056 -0.04896604203380781 -0.3174357461923713 0.5765894923702429 0.07809134065182211 0.0215606182865645 -0.1245230760455056 -0.04896604203380784 0.02463843790778221 0.0118672044577219
9.1 0.04164158415851144 0.01243040088562336 -0.1230793621899002 0.01191162517778643 0.1001913725377369 0.006892506128358452 0.05475885710492723 0.6539973155346254 -0.1230793621899003 0.01191162517778644 0.04164158415851149 0.01243040088562336 -0.02022309012029044 0.6559741212760765 0.1003234620309946 -0.004584837820537547 0.1001913725377369 0.006892506128358449 -0.02022309012029042 0.6559741212760765 0.04164158415851138 0.01243040088562336 -0.1209163199036154 0.0258777856938197 0.05475885710492723 0.6539973155346253 0.1003234620309946 -0.004584837820537509 -0.1209163199036154 0.0258777856938197 0.04337545503365189 0.002665764061452179
9.199999999999999 0.04442208372114853 -0.007531304235952302 -0.08858906100751988 0.07337657542380219 0.08805505983449498 -0.02507771145876102 0.4068560581294317 0.5148518854884893 -0.08858906100751987 0.07337657542380219 0.04442208372114864 -0.007531304235952288 0.3447502693553573 0.5583471749790451 0.08457445589532853 -0.03506774279126749 0.08805505983449496 -0.02507771145876104 0.3447502693553575 0.5583471749790452 0.0444220837211487 -0.007531304235952413 -0.07953346175021053 0.08310578808450596 0.4068560581294317 0.5148518854884894 0.08457445589532853 -0.0350677427912675 -0.0795334617502105 0.08310578808450592 0.04151396830861455 -0.01751092518671032
9.300000000000001 0.02704666792782615 -0.01691647839498889 -0.02772060736161548 0.1021113781345136 0.05365695182045884 -0.02592725836573465 0.625381047079396 0.2034720701138072 -0.02772060736161551 0.1021113781345135 0.02704666792782628 -0.01691647839498886 0.5973900647258774 0.2750044507445867 0.05026779197146164 -0.03200687887533638 0.05365695182045883 -0.02592725836573466 0.5973900647258775 0.2750044507445867 0.02704666792782617 -0.0169164783949888 -0.01562518965079344 0.1046471168518426 0.625381047079396 0.2034720701138073 0.05026779197146164 -0.0320068788753364 -0.01562518965079343 0.1046471168518426 0.02239316038739612 -0.0227208242621297
9.4 0.01266866528833143 -0.003954294748254372 0.03294070052563072 0.08886652894950381 0.03999547331764903 0.005945653108823667 0.6332136796090339 -0.1794446843324214 0.0329407005256307 0.08886652894950378 0.01266866528833157 -0.003954294748254414 0.6499485625855621 -0.103570385594224 0.04041745565418919 0.001190779255313373 0.03999547331764892 0.005945653108823654 0.6499485625855622 -0.103570385594224 0.01266866528833162 -0.003954294748254442 0.04318401742200843 0.08436522007289467 0.6332136796090336 -0.1794446843324214 0.04041745565418921 0.001190779255313384 0.04318401742200848 0.08436522007289471 0.011391240909293 -0.006809637118841026
9.5 0.01995122523437662 0.01334519181036604 0.06823468794311673 0.04751137792220041 0.06465401754798031 0.03036941788627621 0.4247397649206415 -0.5002314481786074 0.06823468794311677 0.04751137792220039 0.01995122523437665 0.01334519181036604 0.4812928689269931 -0.4460858033738945 0.06781076076293092 0.02245315685150668 0.06465401754798028 0.03036941788627622 0.4812928689269931 -0.4460858033738944 0.01995122523437654 0.01334519181036599 0.07340750486969838 0.0390466631041102 0.4247397649206415 -0.5002314481786074 0.06781076076293092 0.02245315685150672 0.07340750486969837 0.03904666310411021 0.02254136802648909 0.008248167087460173
9.6 0.03798950414214652 0.01233643403679808 0.07296416839373718 0.0008565213114819399 0.0962779457375747 0.01661783119437542 0.07594878447124176 -0.648969935683186 0.07296416839373721 0.0008565213114819521 0.03798950414214647 0.01233643403679803 0.1534969311475267 -0.6351132870689994 0.09757808179961938 0.004910509276941203 0.09627794573757471 0.01661783119437544 0.1534969311475267 -0.6351132870689993 0.03798950414214647 0.01233643403679802 0.07253695425194837 -0.007930558996528059 0.07594878447124173 -0.648969935683186 0.09757808179961938 0.004910509276941188 0.07253695425194837 -0.007930558996528066 0.03983678104554828 0.002901879673502531
9.699999999999999 0.04310503191217885 -0.004418150528021435 0.05319807946466625 -0.03641526354687608 0.09550482119421673 -0.01766694578422678 -0.294606709433304 -0.5817698033311045 0.05319807946466626 -0.03641526354687606 0.04310503191217874 -0.004418150528021351 -0.2216821190865227 -0.6132750242658997 0.09264802706529605 -0.02914849782733732 0.09550482119421673 -0.01766694578422678 -0.2216821190865227 -0.6132750242658997 0.04310503191217885 -0.004418150528021414 0.04837554661956667 -0.04261353736989594 -0.2946067094333039 -0.5817698033311045 0.09264802706529603 -0.02914849782733732 0.04837554661956666 -0.04261353736989594 0.04076399292378266 -0.01469219898953216
9.800000000000001 0.0293317197289687 -0.01479407594975343 0.01758608836848529 -0.05315204120813135 0.06344771713217789 -0.029966075597367 -0.567914622987607 -0.3215500428979639 0.01758608836848528 -0.05315204120813134 0.02933171972896878 -0.01479407594975343 -0.5241145489150386 -0.3888770868879056 0.05928618566004108 -0.03753300795133679 0.06344771713217787 -0.02996607559736698 -0.5241145489150386 -0.3888770868879057 0.02933171972896878 -0.01479407594975363 0.01092373725238255 -0.05490976191112084 -0.5679146229876069 -0.3215500428979637 0.05928618566004108 -0.03753300795133678 0.01092373725238254 -0.05490976191112084 0.02483945289917926 -0.02149921033748214
9.9 0.01513771464798558 -0.005286788622177928 -0.01665476921591102 -0.04313675973231675 0.03997658601248574 -0.004707881706669338 -0.650882760113485 0.04893884052435828 -0.01665476921591102 -0.0431367597323167 0.0151377146479855 -0.005286788622177963 -0.6519250031092966 -0.03220509037032827 0.03908343949736773 -0.00963204736456672 0.03997658601248572 -0.004707881706669352 -0.6519250031092965 -0.03220509037032825 0.01513771464798566 -0.005286788622177956 -0.02187873695579656 -0.04073674320632339 -0.650882760113485 0.04893884052435833 0.03908343949736773 -0.009632047364566711 -0.0218787369557966 -0.04073674320632342 0.01336965363388449 -0.008851717370622673
10 0.01954383763872949 0.01092459698758372 -0.03159862404128416 -0.01703034402380361 0.05480839596880027 0.02636561202309595 -0.5114533343150871 0.4019507083091035 -0.0315986240412842 -0.01703034402380361 0.01954383763872936 0.01092459698758391 -0.5577981540161486 0.3346791067102741 0.05768070280586844 0.01928839780402475 0.05480839596880031 0.02636561202309596 -0.5577981540161485 0.3346791067102742 0.01954383763872944 0.01092459698758391 -0.03348392753788296 -0.01293569694718184 -0.511453334315087 0.4019507083091037 0.05768070280586843 0.01928839780402474 -0.03348392753788296 -0.01293569694718181 0.0216466688328691 0.005721025907146636
10.1 0.03588234948612018 0.01197305435425393 -0.02609440185891949 0.00639169279093202 0.08885177522588464 0.02411634845495879 -0.201344744003725 0.6147869020184417 -0.02609440185891946 0.006391692790932008 0.03588234948612018 0.01197305435425382 -0.2775448528231798 0.5843556241730871 0.09118973289913589 0.01267552118756351 0.08885177522588462 0.02411634845495879 -0.2775448528231797 0.5843556241730871 0.03588234948612007 0.01197305435425382 -0.02507544984643989 0.009643306492438745 -0.201344744003725 0.6147869020184416 0.0911897328991359 0.01267552118756352 -0.02507544984643989 0.009643306492438738 0.03773921664290631 0.00257848063668446
10.2 0.04220563645996644 -0.002746649585122662 -0.009778403781130995 0.01810162453108768 0.09950566949404861 -0.007941054283275777 0.1712776350301318 0.6212874762185023 -0.009778403781130989 0.0181016245310877 0.04220563645996656 -0.00274664958512268 0.09045569727696806 0.6380845737028976 0.09767430633145618 -0.02059535110789874 0.0995056694940486 -0.007941054283275779 0.09045569727696806 0.6380845737028977 0.0422056364599665 -0.002746649585122683 -0.007384323814453073 0.01920306623887481 0.1712776350301318 0.6212874762185023 0.0976743063314562 -0.02059535110789873 -0.007384323814453074 0.01920306623887481 0.04012996562768877 -0.01335835662253505
10.3 0.03056268719614594 -0.01361046389261809 0.009260443792929876 0.01544228177768362 0.07398957772393519 -0.0298869533258871 0.486040062269015 0.4224153120393258 0.009260443792929889 0.01544228177768364 0.03056268719614605 -0.01361046389261812 0.4274522054263581 0.4816162892302246 0.06951308220502045 -0.03918697479045898 0.07398957772393516 -0.02988695332588708 0.427452205426358 0.4816162892302245 0.03056268719614599 -0.01361046389261801 0.01117615583497265 0.01411784071647649 0.4860400622690149 0.4224153120393255 0.06951308220502044 -0.03918697479045899 0.01117615583497263 0.01411784071647649 0.02606027183266193 -0.02098058168949294
10.4 0.01639765303345805 -0.006141591346347897 0.02021638852777946 -0.002033705897471351 0.04407047472034555 -0.01444351203168347 0.6384548113943117 0.08077153783598277 0.02021638852777948 -0.002033705897471334 0.01639765303345789 -0.00614159134634798 0.6224841527342401 0.1632852323747347 0.04181239208708507 -0.02006354031176618 0.0440704747203456 -0.01444351203168346 0.6224841527342401 0.1632852323747346 0.01639765303345804 -0.006141591346347897 0.0197789571574521 -0.004650933083502316 0.6384548113943119 0.08077153783598282 0.04181239208708504 -0.0200635403117662 0.01977895715745212 -0.004650933083502301 0.01425361715574874 -0.0101703769472204
10.5 0.01898431810880741 0.009705604987168853 0.01196313641012461 -0.02336125483559968 0.04738682869927728 0.01893734374932386 0.5729270955840186 -0.287673639358527 0.01196313641012462 -0.02336125483559969 0.01898431810880728 0.009705604987168881 0.6057945998888753 -0.2097962878165306 0.0494664043950671 0.01253831562365494 0.04738682869927729 0.01893734374932386 0.6057945998888753 -0.2097962878165306 0.0189843181088073 0.009705604987168881 0.008785639894844809 -0.024732112564421 0.5729270955840187 -0.2876736393585269 0.0494664043950671 0.01253831562365497 0.008785639894844823 -0.02473211256442099 0.02085873675232047 0.004417714716993625
10.6 0.03471576085529546 0.01229976543031554 -0.01161937885462675 -0.03104869149659885 0.07925814125912956 0.0280804288151152 0.3145477475486708 -0.5538586332687684 -0.01161937885462675 -0.03104869149659885 0.03471576085529546 0.01229976543031554 0.3853192803426083 -0.5071772109731911 0.08228539545545278 0.01730540762399549 0.07925814125912958 0.0280804288151152 0.3853192803426083 -0.5071772109731912 0.0347157608552954 0.0122997654303155 -0.01564002456537703 -0.02923047793336126 0.3145477475486708 -0.5538586332687684 0.0822853954554528 0.01730540762399548 -0.01564002456537703 -0.02923047793336127 0.03672921551946871 0.002726354475718288
10.7 0.04232610231920747 -0.001568372901473612 -0.03525281554829748 -0.01937711715430036 0.09942840716287163 0.002344968955835945 -0.04395034753174277 -0.6319106430234909 -0.03525281554829748 -0.01937711715430036 0.04232610231920753 -0.001568372901473608 0.04115736947256578 -0.6320986985848187 0.09884530645747082 -0.01100510888988816 0.09942840716287163 0.002344968955835954 0.04115736947256579 -0.6320986985848189 0.04232610231920758 -0.001568372901473602 -0.03753222469685241 -0.01447638706994073 -0.04395034753174279 -0.6319106430234911 0.09884530645747085 -0.01100510888988817 -0.0375322246968524 -0.01447638706994073 0.04038812879550415 -0.01275765587762401
10.8 0.03183321308128984 -0.01350633933853586 -0.04791321160035385 0.006730860682089222 0.0834109813359733 -0.02583737020326281 -0.3850916955186742 -0.5009209789733025 -0.04791321160035386 0.006730860682089205 0.03183321308128989 -0.01350633933853584 -0.3137757365998819 -0.5484179321049052 0.07914817358014786 -0.03688533753915401 0.0834109813359733 -0.02583737020326281 -0.3137757365998818 -0.5484179321049051 0.03183321308128989 -0.0135063393385358 -0.04656194134845623 0.01315165195878075 -0.3850916955186741 -0.5009209789733025 0.07914817358014785 -0.03688533753915399 -0.04656194134845622 0.01315165195878075 0.02704649730534987 -0.0215467315599884
10.9 0.01678609232016876 -0.007538468207423543 -0.0418571564498437 0.04040570237562673 0.05139215489040005 -0.02158933986593803 -0.5975054019849881 -0.2022728985078784 -0.04185715644984369 0.04040570237562672 0.01678609232016878 -0.007538468207423543 -0.5642895840273922 -0.2819650620736789 0.04796287759304925 -0.02840449881832144 0.05139215489040005 -0.02158933986593801 -0.564289584027392 -0.2819650620736788 0.01678609232016881 -0.007538468207423515 -0.03594789566981992 0.04574266200655751 -0.5975054019849881 -0.2022728985078784 0.04796287759304924 -0.02840449881832146 -0.03594789566981996 0.04574266200655751 0.01412074340172102 -0.0117985594069072
11 0.0175212516472424 0.008946660844287663 -0.01119398362296815 0.06751889487878482 0.04357424162927191 0.009543506961995893 -0.6062645094181662 0.1643227812317304 -0.01119398362296812 0.06751889487878482 0.01752125164724262 0.008946660844287635 -0.6231236941396261 0.07921801318870995 0.04447360808622332 0.003448368091264311 0.04357424162927189 0.009543506961995962 -0.6231236941396262 0.07921801318870997 0.01752125164724258 0.008946660844287663 -0.001783760826376705 0.06841728314043137 -0.6062645094181662 0.1643227812317304 0.0444736080862233 0.003448368091264342 -0.001783760826376702 0.06841728314043137 0.019297937319336 0.003824475750699518
11.1 0.03349822650468634 0.01366432662161854 0.03534963763357458 0.06896533330982597 0.06927711492609964 0.02801767203545238 -0.4095434048624638 0.4702462633357519 0.03534963763357458 0.06896533330982596 0.0334982265046864 0.01366432662161844 -0.4709463212550791 0.408738193889298 0.07249969267322631 0.01811361811063493 0.06927711492609964 0.02801767203545241 -0.4709463212550791 0.4087381938892979 0.0334982265046864 0.01366432662161846 0.04459488750849242 0.06338067597829271 -0.4095434048624638 0.4702462633357518 0.07249969267322633 0.01811361811063495 0.04459488750849244 0.06338067597829271 0.0359658699364775 0.003911674921810798
11.2 0.04335444846419473 0.0001555888037286721 0.07563139669710631 0.0393168866071638 0.095555674728249 0.01138811419692864 -0.08026278333764197 0.613958030104252 0.07563139669710631 0.03931688660716382 0.04335444846419484 0.0001555888037287345 -0.1655946574129841 0.5966280135518909 0.09620833458600046 -0.002128960760887601 0.09555567472824901 0.01138811419692864 -0.165594657412984 0.5966280135518909 0.04335444846419473 0.0001555888037286998 0.08039889251738187 0.02831861262163308 -0.08026278333764196 0.6139580301042521 0.09620833458600046 -0.002128960760887597 0.08039889251738189 0.02831861262163308 0.04169138999348287 -0.01189371304184206
11.3 0.03402048751134723 -0.01394098468941254 0.09259096911071904 -0.0108003300063739 0.09018244241870772 -0.0188189954061451 0.2713936395699867 0.5535626075173831 0.09259096911071904 -0.01080033000637391 0.03402048751134729 -0.01394098468941254 0.190320062310941 0.5863994729895721 0.08661142448084437 -0.03139249365850108 0.09018244241870768 -0.01881899540614509 0.190320062310941 0.5863994729895721 0.03402048751134734 -0.01394098468941261 0.09013053680905209 -0.02379539921120907 0.2713936395699867 0.5535626075173831 0.0866114244808444 -0.03139249365850107 0.0901305368090521 -0.02379539921120909 0.02875147547200613 -0.02291500126124382
11.4 0.017162044968555 -0.01001906193371252 0.07808095617220559 -0.06670426974140363 0.06040456070309887 -0.02513729763116344 0.5314731150303118 0.3089850401229327 0.07808095617220562 -0.06670426974140363 0.01716204496855492 -0.01001906193371259 0.4819159595926087 0.3816967839918597 0.05619701502987937 -0.03350358469870893 0.06040456070309885 -0.02513729763116347 0.4819159595926086 0.3816967839918595 0.01716204496855495 -0.01001906193371238 0.06775794156301694 -0.07716836575723637 0.5314731150303118 0.3089850401229327 0.05619701502987933 -0.03350358469870895 0.06775794156301695 -0.07716836575723639 0.01363095534464114 -0.01446078994822433
11.5 0.0150514539624049 0.007639163350863575 0.02920096619353103 -0.1091128121518582 0.0436950782849912 -1.927917697401582e-05 0.6105470890399912 -0.03927407906363654 0.02920096619353107 -0.1091128121518582 0.01505145396240483 0.007639163350863547 0.6098387094563151 0.04906067335616167 0.04323682956193753 -0.00631164063062324 0.04369507828499115 -1.927917697394643e-05 0.609838709456315 0.04906067335616165 0.01505145396240494 0.007639163350863589 0.01318315732077565 -0.1121806871318682 0.6105470890399913 -0.03927407906363654 0.04323682956193756 -0.006311640630623231 0.01318315732077573 -0.1121806871318683 0.01660445528350775 0.003032350214200303
11.6 0.03126989622608695 0.01571870616521248 -0.04174596481495312 -0.1148012244753722 0.06065185752101507 0.02433810078431802 0.4815970772276697 -0.3694044591420209 -0.04174596481495311 -0.1148012244753722 0.03126989622608689 0.0157187061652125 0.5301469874733682 -0.2955326900719366 0.06354381775981842 0.01527004240479105 0.06065185752101503 0.02433810078431798 0.5301469874733684 -0.2955326900719367 0.03126989622608681 0.01571870616521263 -0.05797858324721029 -0.1075199079427731 0.4815970772276697 -0.3694044591420209 0.06354381775981839 0.01527004240479105 -0.05797858324721029 -0.1075199079427731 0.03446836927354169 0.006067590388391335
11.7 0.04456627757787424 0.003144784436831714 -0.1057145273002032 -0.07526521248184986 0.0889590390969687 0.0177910492115484 0.1946409748063721 -0.5694920270147515 -0.1057145273002032 -0.07526521248184984 0.04456627757787426 0.003144784436831694 0.2759701059853124 -0.5348334119231901 0.09060560739565911 0.004566834523762286 0.08895903909696871 0.01779104921154839 0.2759701059853124 -0.5348334119231902 0.04456627757787421 0.0031447844368317 -0.1156001371121896 -0.05896627673413308 0.1946409748063721 -0.5694920270147515 0.09060560739565911 0.004566834523762288 -0.1156001371121896 -0.05896627673413309 0.04356482476752353 -0.009907008089087272
11.8 0.0374578222143947 -0.01395852262315533 -0.1371622224338307 -0.003984901480883136 0.09347628773915967 -0.01037801526700585 -0.1517842585762536 -0.5785974153825658 -0.1371622224338307 -0.003984901480883124 0.03745782221439453 -0.0139585226231553 -0.06463641243228888 -0.5946726531687929 0.0909172440251242 -0.02407434961224073 0.09347628773915967 -0.01037801526700585 -0.06463641243228888 -0.5946726531687929 0.03745782221439464 -0.01395852262315532 -0.136245759690427 0.0163232248400379 -0.1517842585762536 -0.5785974153825658 0.09091724402512422 -0.02407434961224074 -0.136245759690427 0.01632322484003789 0.03174340911673044 -0.02429577692756942
11.9 0.01852655044370899 -0.01345979025699144 -0.1240868526483209 0.0770452778713366 0.06935620495594796 -0.02495044221435455 -0.4452871426205841 -0.3956106284041324 -0.1240868526483209 0.07704527787133665 0.01852655044370893 -0.01345979025699129 -0.3813783281233795 -0.4575357685769853 0.06486497780461085 -0.03500489090099628 0.06935620495594796 -0.02495044221435459 -0.3813783281233795 -0.4575357685769854 0.01852655044370899 -0.01345979025699137 -0.1112235675906816 0.09467227606241786 -0.4452871426205841 -0.3956106284041322 0.06486497780461088 -0.03500489090099631 -0.1112235675906816 0.09467227606241786 0.01373831771029768 -0.01832096208162697
12 0.01213486057562001 0.004928994657398628 -0.06399690406437797 0.1422400592166589 0.04719168201833399 -0.008099228905497767 -0.5868641534297769 -0.08024273327144905 -0.06399690406437814 0.142240059216659 0.01213486057561995 0.004928994657398586 -0.5681497573341245 -0.1674941314341998 0.04543942733079043 -0.01509671502125575 0.0471916820183341 -0.008099228905497823 -0.5681497573341246 -0.1674941314341997 0.01213486057561997 0.004928994657398628 -0.04190255416867827 0.1502398553311498 -0.5868641534297774 -0.0802427332714491 0.04543942733079046 -0.01509671502125575 -0.04190255416867829 0.1502398553311498 0.01305126448772163 0.001101964061996518
12.1 0.02748825817313992 0.01757646374186439 0.02923380653357202 0.1625009984889149 0.05465053420445719 0.01818638486464133 -0.5276068673434993 0.2577936726641263 0.02923380653357198 0.1625009984889148 0.02748825817313991 0.0175764637418644 -0.5605668894539859 0.174903820946149 0.05677463901157967 0.009698754991348899 0.05465053420445719 0.01818638486464133 -0.5605668894539859 0.1749038209461491 0.02748825817313978 0.01757646374186453 0.05351018859810742 0.1561981103295798 -0.5276068673434995 0.2577936726641264 0.05677463901157968 0.009698754991348799 0.05351018859810741 0.1561981103295799 0.03149006366802635 0.008538870255830677
12.2 0.04492402451754662 0.007520419035563469 0.1209172718876595 0.1230650054300722 0.08117009041777555 0.02087832781278028 -0.2932661950043143 0.5021740439760116 0.1209172718876595 0.1230650054300722 0.0449240245175466 0.007520419035563455 -0.3665134251646063 0.451499436045759 0.08340637829196972 0.008237973713518114 0.08117009041777556 0.02087832781278026 -0.3665134251646062 0.4514994360457589 0.04492402451754662 0.007520419035563372 0.1382922813721472 0.1031563236798635 -0.2932661950043142 0.5021740439760115 0.0834063782919697 0.00823797371351814 0.1382922813721472 0.1031563236798635 0.04509868514639407 -0.006390092283371927
12.3 0.04181220975033384 -0.01257392132561763 0.1756354078295591 0.03658730078627306 0.09330862180694459 -0.00217206240734788 0.03317058341238574 0.5760552618964285 0.1756354078295591 0.03658730078627304 0.04181220975033376 -0.01257392132561764 -0.05590951703912271 0.5742944177570708 0.09186183962607768 -0.01651118345623995 0.09330862180694457 -0.00217206240734788 -0.05590951703912269 0.5742944177570707 0.04181220975033381 -0.01257392132561765 0.1791742248851001 0.009111761580746499 0.03317058341238573 0.5760552618964284 0.09186183962607768 -0.01651118345623994 0.1791742248851 0.009111761580746483 0.03600482182929687 -0.02469852600357591
12.4 0.02162020989985977 -0.01712610195816548 0.1742636843149245 -0.06918498668876989 0.07674215158109159 -0.0217115744435664 0.3449136217532354 0.4584216959912227 0.1742636843149246 -0.06918498668876985 0.0216202098998598 -0.01712610195816546 0.2695907783208622 0.5063957642701553 0.07244286637764728 -0.03335837833444712 0.07674215158109163 -0.02171157444356637 0.2695907783208621 0.5063957642701553 0.02162020989985972 -0.01712610195816543 0.1614152924475211 -0.09539128586101658 0.3449136217532354 0.4584216959912228 0.07244286637764723 -0.03335837833444708 0.1614152924475211 -0.09539128586101656 0.01532746381946659 -0.02293045349002974
12.5 0.009776324636267056 0.0004629641063230161 0.1119618588435246 -0.1619681421357371 0.05285347389206212 -0.01359517735187864 0.5381386606148733 0.1877085150180889 0.1119618588435246 -0.1619681421357371 0.009776324636266959 0.00046296410632303 0.5021491995824434 0.2695809452045478 0.05007600562697113 -0.02169590307259617 0.05285347389206214 -0.01359517735187865 0.5021491995824433 0.2695809452045478 0.009776324636266986 0.0004629641063230161 0.08524602290254377 -0.1774887390284202 0.5381386606148733 0.1877085150180889 0.05007600562697107 -0.02169590307259613 0.08524602290254374 -0.1774887390284202 0.009440901027378044 -0.002580745425003757
12.6 0.02225627617987952 0.01815154489164025 0.001847571692181103 -0.2058671768364413 0.05178997281754789 0.01107913120831958 0.5463302796975295 -0.1423756638875198 0.001847571692181069 -0.2058671768364414 0.02225627617987946 0.01815154489164029 0.5619453779872963 -0.05445177995720205 0.05288903861352723 0.002774531908328757 0.05178997281754788 0.01107913120831955 0.5619453779872963 -0.054451779957202 0.02225627617987949 0.01815154489164029 -0.03063575109662206 -0.2035832968946866 0.5463302796975295 -0.1423756638875198 0.05288903861352724 0.00277453190832884 -0.03063575109662206 -0.2035832968946867 0.02680212954442652 0.01031824903906087
12.7 0.04347193462991358 0.01273732868802871 -0.1181015000940539 -0.1774014733688313 0.07374864118417737 0.0207936101914266 0.3714165671475446 -0.4170193630984886 -0.1181015000940539 -0.1774014733688313 0.04347193462991364 0.01273732868802874 0.4329678014744331 -0.3526957590291263 0.07611589139130474 0.008809505037891911 0.0737486411841774 0.02079361019142661 0.4329678014744331 -0.3526957590291263 0.04347193462991364 0.01273732868802871 -0.1447926589370974 -0.1563788124901305 0.3714165671475446 -0.4170193630984887 0.07611589139130472 0.008809505037891917 -0.1447926589370974 -0.1563788124901305 0.04527311246195376 -0.001547233202090309
12.8 0.0461891813512838 -0.009151802983622767 -0.2026142707691889 -0.08430268393764651 0.09044188894169572 0.004456256371760607 0.07789011363811625 -0.5476718974605226 -0.2026142707691889 -0.08430268393764651 0.04618918135128386 -0.009151802983622739 0.164598076781399 -0.5281276836054255 0.0899881269406085 -0.01008615416865182 0.09044188894169572 0.004456256371760642 0.164598076781399 -0.5281276836054255 0.04618918135128375 -0.00915180298362276 -0.2135004921524791 -0.05076440769939242 0.07789011363811625 -0.5476718974605226 0.08998812694060848 -0.01008615416865187 -0.213500492152479 -0.0507644076993924 0.04092604921153339 -0.02328635797388623
12.9 0.02662813069677039 -0.01993092718364328 -0.2226866203891185 0.04261311271598155 0.08165301304456427 -0.01665224987527118 -0.2368897567913092 -0.4953978450851205 -0.2226866203891186 0.04261311271598155 0.02662813069677036 -0.01993092718364326 -0.153828232452732 -0.5271362790475485 0.07789487920952555 -0.02961249327729219 0.08165301304456427 -0.01665224987527122 -0.153828232452732 -0.5271362790475486 0.02662813069677036 -0.01993092718364327 -0.2128894624452862 0.07799541688733644 -0.2368897567913092 -0.4953978450851204 0.07789487920952556 -0.02961249327729221 -0.2128894624452862 0.07799541688733644 0.01889161491235794 -0.02737528244250916
13 0.009061413238198313 -0.005450713326906262 -0.168254525729058 0.1647358841052196 0.05920813582116668 -0.01616935785009312 -0.4687933136896273 -0.2777655664205216 -0.1682545257290579 0.1647358841052196 0.009061413238198285 -0.005450713326906304 -0.4173767690448004 -0.3503105957728625 0.05579009687373477 -0.02558352148398223 0.05920813582116669 -0.01616935785009313 -0.4173767690448006 -0.3503105957728624 0.009061413238198257 -0.005450713326906345 -0.1392221983894767 0.1899070204490601 -0.4687933136896273 -0.2777655664205216 0.05579009687373478 -0.02558352148398228 -0.1392221983894767 0.1899070204490601 0.006832677507592897 -0.008070564027547423
13.1 0.01632258254845012 0.01655976683276714 -0.04931105088603754 0.239156080111696 0.05179535925417277 0.004467234148780461 -0.5384314011978375 0.03005126585884644 -0.04931105088603756 0.239156080111696 0.01632258254845022 0.01655976683276715 -0.5360769432160193 -0.05859149535346002 0.05182720355407871 -0.004081224445303031 0.05179535925417271 0.004467234148780461 -0.5360769432160191 -0.05859149535346 0.01632258254845036 0.01655976683276717 -0.009452237191742378 0.2440038229330607 -0.5384314011978375 0.03005126585884645 0.05182720355407867 -0.004081224445302955 -0.009452237191742364 0.2440038229330607 0.02080002736843089 0.01039285524190126
13.2 0.03969875216882239 0.01774230720887911 0.09586906138639496 0.2322683141226308 0.06787764445465416 0.01836108291952465 -0.425901762484657 0.3200315308704162 0.09586906138639503 0.2322683141226309 0.03969875216882229 0.01774230720887917 -0.4728983413769429 0.2453154107709826 0.06997767814397528 0.006901343656731473 0.06787764445465409 0.01836108291952459 -0.4728983413769428 0.2453154107709825 0.03969875216882236 0.01774230720887911 0.1329044920697736 0.2132506568903199 -0.4259017624846571 0.3200315308704163 0.06997767814397529 0.006901343656731495 0.1329044920697736 0.21325065689032 0.04331277510078577 0.003844983995359449
13.3 0.04942124404623577 -0.003662654719650618 0.2137235937894639 0.1429769693998263 0.08609283280193557 0.008781447016002884 -0.1755932373398975 0.4967455454993039 0.2137235937894639 0.1429769693998263 0.04942124404623569 -0.003662654719650708 -0.2557829495960294 0.4606128576894718 0.08635404254299597 -0.005662950471206865 0.08609283280193564 0.008781447016002843 -0.2557829495960295 0.4606128576894719 0.04942124404623574 -0.00366265471965066 0.2345305644284865 0.1054305585202801 -0.1755932373398975 0.4967455454993039 0.08635404254299597 -0.005662950471206858 0.2345305644284865 0.1054305585202801 0.04548422795407031 -0.01967382550738758
13.4 0.03307648426751092 -0.02080229178194212 0.2635837901879126 0.001471590877108256 0.08392426692078142 -0.01116021328059993 0.1278799203001229 0.5062529940685575 0.2635837901879126 0.001471590877108249 0.03307648426751092 -0.02080229178194212 0.04122585819386674 0.520524539897519 0.08086684759055129 -0.02506762652158342 0.08392426692078145 -0.01116021328059989 0.04122585819386677 0.5205245398975192 0.03307648426751103 -0.02080229178194213 0.2601022864355746 -0.04272447332058442 0.1278799203001229 0.5062529940685577 0.08086684759055134 -0.02506762652158339 0.2601022864355746 -0.04272447332058443 0.02434429430486727 -0.03056377741179851
13.5 0.01077439323712398 -0.01190829987692839 0.2272905811849209 -0.1485857159586837 0.06494320633081246 -0.01622246071362455 0.3843288098612581 0.3465192243666675 0.227290581184921 -0.1485857159586837 0.01077439323712401 -0.01190829987692844 0.3203075798907867 0.4064323574834504 0.06127202638761324 -0.02695416595792189 0.06494320633081246 -0.01622246071362451 0.3203075798907867 0.4064323574834502 0.01077439323712395 -0.01190829987692833 0.1989414946127795 -0.1848269596232303 0.3843288098612582 0.3465192243666675 0.06127202638761318 -0.02695416595792188 0.1989414946127795 -0.1848269596232303 0.006196835911513548 -0.0148153427322088
13.6 0.01086232818180496 0.01244701260403388 0.109385102491421 -0.2576057550905135 0.05379086864264698 -0.0006380955884546236 0.5063382429775133 0.07287615254474875 0.1093851024914211 -0.2576057550905135 0.01086232818180485 0.01244701260403383 0.4865675462129385 0.1579283789684447 0.05289870255468545 -0.009777115287313445 0.05379086864264697 -0.0006380955884546374 0.4865675462129385 0.1579283789684447 0.01086232818180492 0.01244701260403387 0.06398004010063511 -0.2724561986293089 0.5063382429775132 0.0728761525447488 0.05289870255468548 -0.009777115287313507 0.06398004010063515 -0.2724561986293089 0.01440604964863362 0.008086039192046529
13.7 0.0337514527181518 0.0213029139380076 -0.05469812592143687 -0.2815268460989697 0.06410353875925112 0.01476563600330953 0.4552807250121471 -0.217729163874392 -0.05469812592143685 -0.2815268460989697 0.03375145271815178 0.02130291393800759 0.4858495876525722 -0.1365163197088673 0.06568540890837925 0.003565774050617538 0.06410353875925112 0.01476563600330952 0.4858495876525722 -0.1365163197088673 0.03375145271815179 0.02130291393800759 -0.1021179254312972 -0.2679947375590766 0.4552807250121471 -0.217729163874392 0.06568540890837922 0.003565774050617599 -0.1021179254312972 -0.2679947375590766 0.03896134637538971 0.008659572244210455
13.8 0.05044533575173452 0.003258783838473348 -0.2059883792064719 -0.2073351212539018 0.08154162374502821 0.01079573480476577 0.2552672712310988 -0.4278966911700271 -0.205988379206472 -0.2073351212539019 0.05044533575173452 0.003258783838473278 0.3252712749209691 -0.37743284937498 0.08218137229004789 -0.003436035720874813 0.08154162374502819 0.01079573480476574 0.3252712749209691 -0.37743284937498 0.05044533575173446 0.003258783838473361 -0.2386740476943306 -0.1686824348611433 0.2552672712310988 -0.4278966911700272 0.08218137229004792 -0.003436035720874844 -0.2386740476943306 -0.1686824348611433 0.04854926152125491 -0.01408264097930183
13.9 0.0399416066562539 -0.01904207111361692 -0.2917714280943343 -0.06027733999120947 0.08406283880625616 -0.00638674936350675 -0.02425609140465483 -0.4923785755252474 -0.2917714280943343 -0.06027733999120948 0.03994160665625376 -0.01904207111361694 0.06168134756449986 -0.489101657090967 0.08167377082586767 -0.02089848307132624 0.08406283880625617 -0.006386749363506791 0.06168134756449987 -0.4891016570909671 0.03994160665625374 -0.01904207111361695 -0.2978070260286295 -0.008654433349815246 -0.02425609140465481 -0.4923785755252472 0.08167377082586766 -0.02089848307132619 -0.2978070260286295 -0.008654433349815253 0.03101124824988004 -0.03156318894793824
14 0.01512020254013507 -0.01766767696924901 -0.2832225552609225 0.1132460005682003 0.06923179415357789 -0.01466334259639575 -0.290878644878704 -0.3916984137925421 -0.2832225552609225 0.1132460005682003 0.01512020254013507 -0.01766767696924899 -0.2178324848460242 -0.4365627583290532 0.06559673226305673 -0.02655416453649996 0.0692317941535779 -0.01466334259639579 -0.2178324848460242 -0.4365627583290534 0.0151202025401351 -0.01766767696924905 -0.259030165207969 0.1610684511800849 -0.2908786448787041 -0.3916984137925421 0.06559673226305675 -0.02655416453649992 -0.259030165207969 0.1610684511800849 0.008104806222623802 -0.02179631735954854
14.1 0.007120372826472959 0.006139942519954004 -0.1771197340640209 0.2578254323378721 0.05664208932699519 -0.003867605194488678 -0.4539475081208874 -0.1611388313577089 -0.177119734064021 0.2578254323378721 0.007120372826472945 0.006139942519953999 -0.4184379756794268 -0.2386288406915534 0.05507357435577302 -0.0137907962404963 0.05664208932699527 -0.003867605194488671 -0.4184379756794269 -0.2386288406915534 0.007120372826472932 0.006139942519953969 -0.1289023275432316 0.2850079713079225 -0.4539475081208875 -0.1611388313577089 0.05507357435577296 -0.01379079624049633 -0.1289023275432316 0.2850079713079225 0.008808513386337005 0.003287658020390207
14.2 0.0264334872588845 0.02239590824041424 -0.003117611808957046 0.3194881722052746 0.06229113499412138 0.01116169099032899 -0.4599134619281562 0.1166184758974066 -0.003117611808957046 0.3194881722052746 0.02643348725888456 0.02239590824041426 -0.4733100822386324 0.03313347906022736 0.06328320200705742 -7.203022566798836e-05 0.06229113499412139 0.0111616909903289 -0.4733100822386324 0.03313347906022737 0.02643348725888447 0.02239590824041425 0.05364007855760415 0.3149684962893791 -0.4599134619281561 0.1166184758974066 0.06328320200705742 -7.203022566794658e-05 0.05364007855760415 0.3149684962893791 0.03259207421268222 0.01175000651462296
14.3 0.04864986081959033 0.01046781357674386 0.1781206792185797 0.2714285130839558 0.07776281887093621 0.01109178264238559 -0.3136950333321192 0.3467151702835893 0.1781206792185797 0.2714285130839559 0.04864986081959029 0.01046781357674392 -0.3706133898860952 0.2850643760261091 0.07849311792935322 -0.002985645435848837 0.07776281887093614 0.01109178264238559 -0.370613389886095 0.2850643760261091 0.04864986081959033 0.01046781357674387 0.2237658695874094 0.2352217032674618 -0.3136950333321192 0.3467151702835893 0.07849311792935319 -0.002985645435848906 0.2237658695874094 0.2352217032674618 0.04922320029919969 -0.00731167772456112
14.4 0.04593081344365646 -0.01456817394523906 0.3030605317892711 0.129627050227098 0.08299087414816761 -0.002965076235718123 -0.06830420790592219 0.4567060202933899 0.3030605317892711 0.129627050227098 0.0459308134436564 -0.01456817394523912 -0.1493822315254199 0.4369562938033591 0.08110218649496152 -0.0178525128398524 0.08299087414816765 -0.002965076235718178 -0.1493822315254199 0.4369562938033592 0.04593081344365646 -0.01456817394523908 0.321441153987388 0.07296877827009739 -0.06830420790592219 0.4567060202933899 0.08110218649496154 -0.01785251283985241 0.321441153987388 0.07296877827009737 0.03779745125604855 -0.02988685320071941
14.5 0.02162930622366047 -0.02150732392394869 0.3303901479157463 -0.06009945382195091 0.07187865074077052 -0.01256184851331502 0.1947751681025297 0.4127050231265139 0.3303901479157463 -0.06009945382195092 0.02162930622366044 -0.02150732392394868 0.1167661762541968 0.4411671591428797 0.06841243506012108 -0.02537871548226707 0.0718786507407705 -0.01256184851331511 0.1167661762541968 0.4411671591428797 0.02162930622366044 -0.02150732392394866 0.3140302393220579 -0.1189731187319915 0.1947751681025297 0.412705023126514 0.06841243506012105 -0.0253787154822671 0.3140302393220579 -0.1189731187319915 0.01254342108419393 -0.02780385688337382
14.6 0.006037478144447814 -0.001419438099745041 0.2468588885228443 -0.2380207951004154 0.05933069333020007 -0.005481335520841889 0.386240263407597 0.2308088250608801 0.2468588885228443 -0.2380207951004154 0.006037478144447744 -0.001419438099744957 0.3376487867879664 0.2974013308372513 0.05733490679127273 -0.01621371867803174 0.05933069333020012 -0.00548133552084192 0.3376487867879665 0.2974013308372515 0.006037478144447758 -0.001419438099745075 0.1992909264290554 -0.2790633196713906 0.3862402634075971 0.2308088250608802 0.05733490679127282 -0.01621371867803171 0.1992909264290554 -0.2790633196713906 0.005126328465521414 -0.00349094590724022
14.7 0.01899443219806521 0.02052776901946736 0.07372145227688476 -0.3414321818750185 0.06178921830459506 0.008337923118879806 0.4418367114562245 -0.02268732917129776 0.0737214522768848 -0.3414321818750185 0.01899443219806515 0.02052776901946736 0.4384867392733729 0.05885383570153142 0.06226946204939143 -0.003153181997388703 0.06178921830459502 0.008337923118879778 0.4384867392733727 0.05885383570153139 0.01899443219806532 0.0205277690194674 0.009754015855990323 -0.3491642113969155 0.4418367114562244 -0.02268732917129776 0.06226946204939138 -0.003153181997388667 0.009754015855990351 -0.3491642113969155 0.02512545027700786 0.01228370887888143
14.8 0.0440821828627158 0.01662519711982711 -0.1306569321409932 -0.3291722773243497 0.07518855058572091 0.01057767436826562 0.3493218827531672 -0.259307739351041 -0.1306569321409931 -0.3291722773243497 0.04408218286271579 0.01662519711982715 0.3912469622714188 -0.1902422034432737 0.0758478692729487 -0.003507999569021446 0.07518855058572094 0.01057767436826562 0.3912469622714187 -0.1902422034432737 0.04408218286271574 0.01662519711982711 -0.1892716586059835 -0.2993357000491835 0.3493218827531672 -0.259307739351041 0.07584786927294873 -0.003507999569021424 -0.1892716586059835 -0.2993357000491835 0.04710999573180486 -0.0005332235594491144
14.9 0.04984645508773536 -0.007969911871967016 -0.2946183507827484 -0.2042728967832044 0.08169518233658835 -0.000913066954893349 0.1451938029534802 -0.4034727320211287 -0.2946183507827483 -0.2042728967832044 0.0498464550877353 -0.007969911871967029 0.2177612510072983 -0.369393453461785 0.08009734499696256 -0.01610440414017505 0.08169518233658835 -0.0009130669548933976 0.2177612510072983 -0.3693934534617851 0.04984645508773536 -0.007969911871966981 -0.3274937388507396 -0.1458603441368208 0.1451938029534802 -0.4034727320211286 0.08009734499696254 -0.01610440414017502 -0.3274937388507396 -0.1458603441368208 0.04347674621936459 -0.02565075278110774
15 0.0292649909717326 -0.02257579017863759 -0.3637378860792702 -0.007937504172191552 0.07326251588103988 -0.01079675991226578 -0.102133336084237 -0.4105759306838394 -0.3637378860792702 -0.007937504172191556 0.02926499097173257 -0.02257579017863759 -0.0233900162811391 -0.4224413809452912 0.06994172424062675 -0.02433354614664411 0.07326251588103988 -0.01079675991226585 -0.0233900162811391 -0.4224413809452912 0.02926499097173252 -0.02257579017863758 -0.3587824280689862 0.06036077410721665 -0.1021333360842369 -0.4105759306838394 0.06994172424062675 -0.02433354614664412 -0.3587824280689862 0.06036077410721664 0.01889919780423486 -0.03176360056923438
15.1 0.00797506036159995 -0.008923078594986131 -0.3127159202655816 0.1980709145602627 0.06124526756758339 -0.006168579390783052 -0.3088669731715178 -0.2794721091166041 -0.3127159202655816 0.1980709145602626 0.007975060361599923 -0.008923078594986103 -0.2506103372462072 -0.3327129780389704 0.05898248659742169 -0.01760966910280424 0.06124526756758347 -0.006168579390782969 -0.2506103372462072 -0.3327129780389704 0.007975060361599937 -0.008923078594986145 -0.2697437302724526 0.2534988243779264 -0.3088669731715178 -0.2794721091166041 0.05898248659742161 -0.01760966910280419 -0.2697437302724526 0.2534988243779264 0.004101976457580418 -0.0112426290753061
15.2 0.01278636161167807 0.0158884505083182 -0.1520873821072746 0.3439954791370962 0.06173486696427104 0.006537370309389126 -0.4044963217658354 -0.05901233732452335 -0.1520873821072746 0.3439954791370962 0.01278636161167801 0.01588845050831823 -0.3859363700163931 -0.1347325074997248 0.0618532241335062 -0.00530185570801123 0.06173486696427105 0.006537370309389182 -0.3859363700163931 -0.1347325074997248 0.01278636161167804 0.01588845050831824 -0.08401403865387362 0.3666130150063824 -0.4044963217658355 -0.05901233732452334 0.06185322413350619 -0.005301855708011285 -0.08401403865387365 0.3666130150063824 0.01778775870990482 0.009976449413397391
15.3 0.03745369567577056 0.02057086303622817 0.06590771911557186 0.3749073111470812 0.07366825687423062 0.01012568183550859 -0.3623071497051536 0.1717956307223321 0.06590771911557189 0.3749073111470812 0.03745369567577062 0.02057086303622816 -0.3884584712898207 0.09939932366938957 0.07424568212716434 -0.004137655011433856 0.07366825687423062 0.01012568183550852 -0.3884584712898208 0.09939932366938958 0.03745369567577048 0.02057086303622819 0.1363317492973971 0.3554053650749564 -0.3623071497051538 0.1717956307223322 0.07424568212716436 -0.00413765501143382 0.1363317492973971 0.3554053650749563 0.04243525253476046 0.005018871201734078
15.4 0.05092156624282343 -0.0003626892315759028 0.2652420779305126 0.2783225646088268 0.0808945936196511 0.0002633000673867014 -0.203191099998505 0.337879471697111 0.2652420779305126 0.2783225646088268 0.05092156624282343 -0.0003626892315758612 -0.2643779018888111 0.2924952743307001 0.07943516827443459 -0.01529897529334065 0.08089459361965114 0.0002633000673867101 -0.2643779018888111 0.2924952743307001 0.0509215662428234 -0.0003626892315758386 0.3138167995936065 0.2221166949334446 -0.203191099998505 0.337879471697111 0.07943516827443459 -0.01529897529334063 0.3138167995936065 0.2221166949334447 0.04701793740344735 -0.01955635483484739
15.5 0.03669436842657262 -0.02062993787735629 0.3792018376183364 0.08662295351011245 0.07410976160842679 -0.009802505963541416 0.01844985556846959 0.3878604558774595 0.3792018376183364 0.08662295351011245 0.0366943684265725 -0.02062993787735632 -0.05696920656662181 0.3840971750835166 0.07081111454920476 -0.02396105058469922 0.07410976160842681 -0.009802505963541402 -0.05696920656662181 0.3840971750835166 0.03669436842657256 -0.0206299378773563 0.3887971536573135 0.01159064432676839 0.01844985556846962 0.3878604558774594 0.07081111454920475 -0.0239610505846992 0.3887971536573134 0.01159064432676839 0.02611030470287501 -0.03302003936054062
15.6 0.01261434260894659 -0.01504591355863161 0.3690198934378242 -0.1394901542831531 0.06231037122661153 -0.006740408390409527 0.2277349118394951 0.306296662552484 0.3690198934378242 -0.1394901542831531 0.01261434260894656 -0.01504591355863157 0.1637118614845708 0.3447887207705462 0.05980399936176932 -0.01874825666575767 0.06231037122661144 -0.006740408390409583 0.1637118614845708 0.3447887207705461 0.01261434260894667 -0.01504591355863164 0.3347816811382677 -0.2086969354567435 0.2277349118394952 0.3062966625524841 0.0598039993617693 -0.01874825666575771 0.3347816811382678 -0.2086969354567435 0.005908077037990049 -0.01872420305334445
15.7 0.008899705716422526 0.009299947678625332 0.2324837545144555 -0.3254010959113243 0.06138691044743141 0.005473101463001159 0.3523935065456534 0.1246598576412285 0.2324837545144555 -0.3254010959113244 0.008899705716422485 0.009299947678625312 0.3211222640651674 0.1913158516284885 0.06126887214488339 -0.006665802277235373 0.06138691044743146 0.005473101463001097 0.3211222640651674 0.1913158516284884 0.008899705716422471 0.009299947678625305 0.1641904298850013 -0.3646588433969576 0.3523935065456536 0.1246598576412286 0.06126887214488342 -0.006665802277235392 0.1641904298850013 -0.3646588433969577 0.01179094679223557 0.005164045159248799
15.8 0.02994745267941573 0.02163697669356448 0.01227637661759683 -0.403906269446784 0.07262170975051743 0.01027251432005684 0.354409440769611 -0.08983216423154748 0.01227637661759683 -0.4039062694467841 0.02994745267941584 0.02163697669356449 0.36516577014673 -0.01816121555121414 0.0732211947864404 -0.004253693875953778 0.07262170975051743 0.01027251432005676 0.3651657701467299 -0.01816121555121413 0.02994745267941587 0.02163697669356449 -0.06763398850965797 -0.3983925545483383 0.354409440769611 -0.0898321642315475 0.07322119478644039 -0.004253693875953776 -0.06763398850965797 -0.3983925545483383 0.0359851182621863 0.008371376594095595
15.9 0.04902513323757693 0.006910070531788891 -0.215491965733753 -0.3457505358742202 0.0808281119949435 0.001311621472268647 0.2406650174241637 -0.2656531332219109 -0.2154919657337529 -0.3457505358742199 0.04902513323757694 0.006910070531788895 0.2886034807142724 -0.212601196426544 0.0794803849000657 -0.01475711542582239 0.0808281119949435 0.001311621472268668 0.2886034807142725 -0.212601196426544 0.04902513323757691 0.006910070531788919 -0.2798288532157939 -0.2961013901707334 0.2406650174241637 -0.2656531332219108 0.07948038490006575 -0.01475711542582241 -0.2798288532157939 -0.2961013901707334 0.04785099849178637 -0.01270805677731747
16 0.04263946671901608 -0.01609567317893962 -0.3740498720334283 -0.1706973652302708 0.07518032909931535 -0.009483580789510324 0.05177137216942225 -0.3484000825443759 -0.3740498720334283 -0.1706973652302708 0.04263946671901607 -0.01609567317893962 0.1203074142852287 -0.3310423214050359 0.07177185957319467 -0.0243067966107868 0.07518032909931535 -0.00948358078951031 0.1203074142852286 -0.3310423214050358 0.04263946671901604 -0.01609567317893964 -0.4006046244396337 -0.0925571830943475 0.05177137216942226 -0.3484000825443758 0.07177185957319465 -0.02430679661078685 -0.4006046244396336 -0.09255718309434752 0.0329387725972809 -0.03149971550585707
16.1 0.01904975891767877 -0.01878888139916042 -0.4107265698106916 0.06529956335129973 0.06293066649099123 -0.007817391081128486 -0.1486061402861693 -0.3120142066209883 -0.4107265698106916 0.06529956335129974 0.01904975891767877 -0.01878888139916038 -0.08287857594162108 -0.3355112393258478 0.06007625404939217 -0.02030330238430608 0.06293066649099122 -0.007817391081128472 -0.08287857594162117 -0.3355112393258479 0.01904975891767866 -0.01878888139916038 -0.3892277406770316 0.1464995358688237 -0.1486061402861693 -0.3120142066209882 0.06007625404939218 -0.02030330238430607 -0.3892277406770315 0.1464995358688236 0.01011449662627761 -0.02477119974991964
16.2 0.007888073389842265 0.001987655368352281 -0.3089458136087821 0.2855415556131706 0.06038164588851408 0.004514272420584782 -0.2906984658470426 -0.1718407752228819 -0.308945813608782 0.2855415556131706 0.00788807338984221 0.001987655368352301 -0.2499541601749119 -0.2270633565467569 0.06004742629912126 -0.007786424760104536 0.06038164588851408 0.004514272420584806 -0.2499541601749119 -0.2270633565467569 0.007888073389842196 0.001987655368352305 -0.2448375875853468 0.3421053221359898 -0.2906984658470425 -0.1718407752228818 0.06004742629912121 -0.00778642476010451 -0.2448375875853468 0.3421053221359898 0.00803034701315386 -0.00129846159558433
16.3 0.02289699756739594 0.01980717244758354 -0.09887746907596218 0.412758802020895 0.07131883911373976 0.01106329269528608 -0.3287357866916251 0.01820278358279422 -0.0988774690759622 0.4127588020208951 0.02289699756739599 0.01980717244758356 -0.3255661236177562 -0.04904342906477471 0.07207823481560828 -0.003674414736948853 0.07131883911373978 0.01106329269528614 -0.3255661236177561 -0.04904342906477471 0.02289699756739599 0.01980717244758355 -0.01285427546811662 0.4242420890703587 -0.3287357866916251 0.0182027835827942 0.07207823481560825 -0.003674414736948848 -0.01285427546811662 0.4242420890703586 0.02889159546541299 0.009048330753933324
16.4 0.0446778573739382 0.01263222367775747 0.1476483682362379 0.4009341239763617 0.08122404100288769 0.002913729224572267 -0.2576293241377322 0.192561748917473 0.1476483682362379 0.4009341239763619 0.04467785737393817 0.01263222367775745 -0.2915820207414213 0.1357675255065437 0.08010148930589474 -0.01376902559408436 0.08122404100288774 0.002913729224572323 -0.2915820207414213 0.1357675255065436 0.04467785737393817 0.01263222367775747 0.226568197995289 0.3622361992798123 -0.2576293241377323 0.192561748917473 0.08010148930589472 -0.01376902559408437 0.226568197995289 0.3622361992798123 0.04599665769482506 -0.006323882942935211
16.5 0.04620320394825968 -0.009938014287845213 0.3471368131724589 0.2542942991048014 0.0769696294227756 -0.009312750168647715 -0.1053339533764485 0.2970010529556634 0.3471368131724589 0.2542942991048014 0.04620320394825966 -0.009938014287845204 -0.1642192069201567 0.2689552365528498 0.07340386252159627 -0.02495844819081609 0.07696962942277566 -0.009312750168647688 -0.1642192069201567 0.2689552365528498 0.04620320394825969 -0.009938014287845196 0.3920511443679901 0.1773850552230433 -0.1053339533764485 0.2970010529556634 0.07340386252159628 -0.02495844819081609 0.3920511443679901 0.1773850552230434 0.03828298464566144 -0.0277112480716756
16.6 0.02604090860237036 -0.01971870571593365 0.4337935290803628 0.02018807597965797 0.06378185747998225 -0.009607996738880034 0.07670642729333411 0.2988171867208816 0.4337935290803629 0.02018807597965799 0.02604090860237031 -0.01971870571593365 0.01316084347287815 0.3082245598049775 0.06040941760956454 -0.02260843225445607 0.06378185747998227 -0.009607996738879965 0.01316084347287816 0.3082245598049776 0.02604090860237032 -0.01971870571593365 0.4285703011986359 -0.07008481443413035 0.07670642729333413 0.2988171867208818 0.06040941760956456 -0.02260843225445608 0.4285703011986359 -0.07008481443413034 0.0158171407941384 -0.02857926403963199
16.7 0.009655472102010912 -0.004747913815702009 0.3757233202748007 -0.2259443341697235 0.05883896348183329 0.00296863016220475 0.2248624015801647 0.1996220181271934 0.3757233202748005 -0.2259443341697235 0.009655472102010912 -0.004747913815701995 0.178343478170881 0.242086045776053 0.0581664908199623 -0.009353915455449897 0.05883896348183322 0.002968630162204725 0.178343478170881 0.242086045776053 0.009655472102010954 -0.004747913815701998 0.3204110707585103 -0.2992584188909395 0.2248624015801645 0.1996220181271934 0.05816649081996231 -0.009353915455449925 0.3204110707585102 -0.2992584188909395 0.006882635943051215 -0.008270438294882859
16.8 0.01744066944597825 0.01568407238856682 0.1881563698877147 -0.3996079394052143 0.06918462343837112 0.01207663484933502 0.289407454668792 0.03945993127976199 0.1881563698877147 -0.3996079394052142 0.01744066944597822 0.01568407238856682 0.2747131518593336 0.0992292557161603 0.07017923979049218 -0.002689150799412539 0.0691846234383711 0.01207663484933504 0.2747131518593336 0.09922925571616031 0.01744066944597825 0.01568407238856686 0.1002409337402924 -0.4301640151940633 0.289407454668792 0.03945993127976202 0.07017923979049219 -0.002689150799412583 0.1002409337402923 -0.4301640151940633 0.02233624853442245 0.007159544596005632
16.9 0.03888205040769177 0.01601673983913372 -0.06549514580217874 -0.4391396465723 0.08144759558033754 0.005414568858631438 0.2556374548365517 -0.1239475205308722 -0.06549514580217874 -0.4391396465723 0.03888205040769177 0.01601673983913371 0.2760197629387538 -0.0672799125169997 0.08075905170530948 -0.01187450838570737 0.08144759558033754 0.00541456885863148 0.2760197629387537 -0.0672799125169997 0.03888205040769174 0.01601673983913371 -0.1565850757921845 -0.4154688404133926 0.2556374548365517 -0.1239475205308722 0.08075905170530946 -0.01187450838570733 -0.1565850757921845 -0.4154688404133926 0.04202745685639814 -0.001429219774689799
17 0.04707429641507303 -0.003385187375965069 -0.299026737964498 -0.3314287414243969 0.07952175247342805 -0.008571193414208578 0.1405569996278667 -0.2390142219692009 -0.299026737964498 -0.331428741424397 0.04707429641507302 -0.003385187375965069 0.1880345897106593 -0.2037818969395334 0.07589691987823209 -0.02523553102247218 0.07952175247342805 -0.008571193414208582 0.1880345897106593 -0.2037818969395334 0.04707429641507301 -0.00338518737596509 -0.3624945487217732 -0.2604989497231155 0.1405569996278667 -0.239014221969201 0.07589691987823209 -0.02523553102247217 -0.3624945487217732 -0.2604989497231156 0.04143985924746656 -0.02258731816959928
17.1 0.03234443193199846 -0.01804059710218783 -0.4355044692701251 -0.1116776135901116 0.06552302115110743 -0.01184123223306607 -0.01635733801783979 -0.2701588125263272 -0.4355044692701251 -0.1116776135901117 0.0323444319319985 -0.01804059710218782 0.04162618349477046 -0.2674333699079544 0.06149108768029639 -0.02554069727826514 0.06552302115110743 -0.01184123223306605 0.04162618349477043 -0.2674333699079544 0.03234443193199844 -0.01804059710218787 -0.4493018515676462 -0.01624433160584073 -0.01635733801783981 -0.2701588125263272 0.06149108768029635 -0.0255406972782651 -0.4493018515676462 -0.01624433160584073 0.02188625858292962 -0.02987669837931033
17.2 0.01352714609191126 -0.009859824078869612 -0.4276932906319341 0.1496425967715239 0.05729794914124089 0.0003662398993315857 -0.1602365426339714 -0.2085445854406317 -0.427693290631934 0.1496425967715239 0.01352714609191126 -0.009859824078869666 -0.1117831817837198 -0.238056955332545 0.05604329699882728 -0.01193054772243597 0.05729794914124085 0.0003662398993316274 -0.1117831817837198 -0.2380569553325451 0.0135271460919113 -0.009859824078869678 -0.3856490736598515 0.2378849503549883 -0.1602365426339714 -0.2085445854406317 0.0560432969988273 -0.01193054772243593 -0.3856490736598515 0.2378849503549884 0.008152081428536337 -0.01461996513814859
17.3 0.01425386980565757 0.0102888432494354 -0.2741143569548 0.3642449711047305 0.06602937988035656 0.01260731851484417 -0.2411927483056662 -0.08084658015337487 -0.2741143569548 0.3642449711047304 0.01425386980565752 0.01028884324943532 -0.2180777538099627 -0.1309664256629837 0.06719444602557058 -0.001931297707721392 0.06602937988035655 0.0126073185148442 -0.2180777538099626 -0.1309664256629837 0.01425386980565757 0.01028884324943537 -0.1890983067018743 0.4147950217472641 -0.2411927483056661 -0.08084658015337486 0.06719444602557062 -0.001931297707721366 -0.1890983067018744 0.4147950217472642 0.0172615560474974 0.003327428837284711
17.4 0.03282837976122704 0.01686668878435717 -0.02602998308447656 0.4568980486348536 0.08076556543784241 0.008685372862821221 -0.2375451539038605 0.06433711692791279 -0.02602998308447654 0.4568980486348535 0.03282837976122707 0.01686668878435717 -0.2458450267202007 0.01127774776932319 0.08072654925850792 -0.009040824468727183 0.08076556543784243 0.008685372862821304 -0.2458450267202007 0.01127774776932319 0.03282837976122704 0.01686668878435716 0.07369860299576612 0.4516656980358235 -0.2375451539038604 0.06433711692791277 0.08072654925850792 -0.009040824468727185 0.07369860299576611 0.4516656980358234 0.03688214988596289 0.00137649122229947
17.5 0.04555517927942848 0.002404151426407763 0.2319502736711077 0.3965075390149586 0.08240999583514158 -0.006644009754002735 -0.1573382942846117 0.1798666410192899 0.2319502736711076 0.3965075390149585 0.04555517927942848 0.002404151426407763 -0.1927857707782601 0.1412125843732962 0.07897595046320867 -0.02446118410036913 0.08240999583514161 -0.006644009754002721 -0.1927857707782601 0.1412125843732962 0.04555517927942848 0.002404151426407763 0.3128595998108027 0.3363599690183494 -0.1573382942846117 0.1798666410192899 0.07897595046320864 -0.02446118410036918 0.3128595998108027 0.3363599690183494 0.04224319648311743 -0.0172211107118764
17.6 0.03702651166563913 -0.01449025303677764 0.4147076980090444 0.2032955287888743 0.06852600445540426 -0.01386808361213848 -0.02933588087980192 0.2304477982095353 0.4147076980090444 0.2032955287888743 0.0370265116656391 -0.01449025303677762 -0.07917451842545856 0.2183991237132451 0.06381460499512781 -0.02856279431377743 0.06852600445540424 -0.0138680836121385 -0.07917451842545857 0.2183991237132452 0.03702651166563913 -0.01449025303677764 0.4492030184525113 0.1073694324594371 -0.02933588087980189 0.2304477982095353 0.06381460499512781 -0.02856279431377741 0.4492030184525113 0.1073694324594371 0.02726027944785954 -0.02894489874952336
17.7 0.01847264061948316 -0.01279146255405944 0.4607337070803206 -0.0609570794808862 0.05651228750156122 -0.00334407193305826 0.1016995073003497 0.2005349388544481 0.4607337070803207 -0.0609570794808862 0.0184726406194832 -0.01279146255405944 0.05495711908153685 0.2180292791089053 0.05438244486522334 -0.01572803694786857 0.05651228750156119 -0.00334407193305826 0.05495711908153686 0.2180292791089053 0.01847264061948325 -0.01279146255405943 0.4359368837248991 -0.1610911164125368 0.1016995073003497 0.2005349388544482 0.05438244486522333 -0.01572803694786862 0.4359368837248992 -0.1610911164125368 0.01117035043205523 -0.01949572355552797
17.8 0.0134293055262821 0.004763347884574123 0.3509369466563293 -0.3080869956851258 0.06213727567416317 0.01193705848709268 0.1891370935684294 0.1050449751139324 0.3509369466563293 -0.308086995685126 0.0134293055262821 0.004763347884574207 0.1611240453103893 0.1443825785301507 0.06323716546743104 -0.002143664427088068 0.06213727567416327 0.01193705848709264 0.1611240453103893 0.1443825785301506 0.01342930552628209 0.004763347884574165 0.2738541073361014 -0.3782568774442852 0.1891370935684295 0.1050449751139324 0.06323716546743106 -0.002143664427088069 0.2738541073361015 -0.3782568774442854 0.0141683154636262 -0.001514782793300211
17.9 0.02757573078789685 0.0155588264652094 0.1212587479156259 -0.4522421827889798 0.07863326548193714 0.01215651320259621 0.2071901119603935 -0.01716149370263277 0.1212587479156259 -0.4522421827889798 0.02757573078789688 0.0155588264652094 0.2057983659963569 0.02948375677378032 0.07936379189831781 -0.00568856652577821 0.07863326548193715 0.01215651320259616 0.2057983659963569 0.02948375677378034 0.02757573078789688 0.01555882646520943 0.0173331983438042 -0.4678955397040889 0.2071901119603935 -0.01716149370263279 0.07936379189831781 -0.005688566525778217 0.01733319834380417 -0.4678955397040889 0.03159779013062074 0.002019323728952622
18 0.04241538545741255 0.006627204910885642 -0.1495990917119317 -0.4447932849102669 0.0848828088976562 -0.003269871747981719 0.1570632949818073 -0.1246070691544536 -0.1495990917119317 -0.4447932849102668 0.04241538545741255 0.006627204910885635 0.1810081239071179 -0.08620823274740337 0.08198724168324681 -0.02222331003197204 0.0848828088976562 -0.003269871747981705 0.1810081239071178 -0.08620823274740334 0.04241538545741261 0.006627204910885649 -0.2455424634897416 -0.3999123068445002 0.1570632949818073 -0.1246070691544536 0.08198724168324684 -0.02222331003197206 -0.2455424634897416 -0.3999123068445002 0.04104547618298336 -0.01257989083195476
18.1 0.03966520728766722 -0.01008604792559341 -0.3719261464829455 -0.2890636448285387 0.07270981805389333 -0.01489271707065841 0.05869592493854067 -0.1846514325178038 -0.3719261464829455 -0.2890636448285388 0.03966520728766723 -0.01008604792559339 0.09882218250008332 -0.1666599513416108 0.06747888771576985 -0.03090486006794855 0.07270981805389336 -0.01489271707065845 0.09882218250008333 -0.1666599513416109 0.03966520728766726 -0.01008604792559335 -0.4275293868082793 -0.1977510369493664 0.05869592493854068 -0.1846514325178038 0.06747888771576983 -0.03090486006794854 -0.4275293868082793 -0.1977510369493663 0.03119985159390911 -0.0264882293188696
18.2 0.02340863165845613 -0.01355973161507025 -0.4720421795420283 -0.0348152349905948 0.05717567112347793 -0.007743961236377453 -0.05330490704679806 -0.1787237983495156 -0.4720421795420283 -0.0348152349905948 0.02340863165845607 -0.01355973161507024 -0.01139671978524004 -0.1861551073429972 0.05393111925110126 -0.02050513790185572 0.05717567112347793 -0.007743961236377439 -0.01139671978524004 -0.1861551073429972 0.02340863165845611 -0.01355973161507024 -0.467643553874911 0.07311242283963872 -0.05330490704679805 -0.1787237983495156 0.05393111925110126 -0.02050513790185568 -0.467643553874911 0.07311242283963876 0.01501374784114021 -0.02250372709923109
18.3 0.01452703012096018 6.666466039700891e-05 -0.4134069325873234 0.234057039023262 0.05819374353562494 0.009603634945767948 -0.1382000471326976 -0.1125341622700756 -0.4134069325873234 0.234057039023262 0.01452703012096018 6.66646603970783e-05 -0.108910478624836 -0.1410733793138049 0.05885084405566311 -0.003914044557448128 0.05819374353562496 0.009603634945767924 -0.1089104786248361 -0.1410733793138049 0.01452703012096018 6.666466039698116e-05 -0.3491721028914169 0.3221285954242221 -0.1382000471326977 -0.1125341622700756 0.05885084405566313 -0.003914044557448144 -0.349172102891417 0.3221285954242221 0.0130470298429716 -0.006388588309543619
18.4 0.02379956347306691 0.0128703556686327 -0.2142359960622661 0.424810191990117 0.07491020025956083 0.01499849728081493 -0.16903660778942 -0.01541295653526832 -0.2142359960622662 0.4248101919901172 0.02379956347306691 0.01287035566863268 -0.1610059482676276 -0.05374028865343295 0.07635378629090789 -0.002567555773977474 0.07491020025956083 0.01499849728081493 -0.1610059482676276 -0.05374028865343296 0.02379956347306689 0.01287035566863267 -0.111182360782892 0.4626005229982066 -0.16903660778942 -0.01541295653526835 0.07635378629090787 -0.002567555773977439 -0.1111823607828919 0.4626005229982067 0.02704170888176576 0.0009006982288630707
18.5 0.03862788390470853 0.008994783474671581 0.056794563561812 0.4727653793822602 0.0861184600822225 0.001335431901162448 -0.1423843257872204 0.07752223712342673 0.056794563561812 0.4727653793822602 0.03862788390470853 0.008994783474671589 -0.1564142791762912 0.04263293032695929 0.08410941466415886 -0.01854127585007488 0.08611846008222249 0.001335431901162455 -0.1564142791762912 0.04263293032695929 0.0386278839047085 0.008994783474671586 0.1641868499422988 0.4469624197834244 -0.1423843257872204 0.07752223712342672 0.08410941466415885 -0.01854127585007487 0.1641868499422988 0.4469624197834244 0.03856031270374104 -0.009280184745012895
18.6 0.04038910778354533 -0.0058241266768531 0.3093106152507047 0.363390565953745 0.07753157437957878 -0.01425307402767353 -0.0715477686084708 0.1378484963871118 0.3093106152507049 0.3633905659537451 0.04038910778354529 -0.005824126676853128 -0.1015296343497281 0.1175288241149778 0.07212216932984118 -0.0318227565772077 0.0775315743795788 -0.01425307402767352 -0.1015296343497281 0.1175288241149778 0.04038910778354528 -0.005824126676853017 0.3850655545800343 0.2818692583573511 -0.07154776860847084 0.1378484963871119 0.0721221693298412 -0.03182275657720771 0.3850655545800344 0.2818692583573512 0.03343131265824026 -0.02339973959354787
18.7 0.02748894650433428 -0.01267001823755754 0.4603665865011549 0.1318025736016828 0.05966671327469107 -0.01205298189930456 0.01797972496659227 0.1471643907732085 0.4603665865011548 0.1318025736016828 0.02748894650433431 -0.01267001823755751 -0.01677934919319437 0.1473060822307645 0.05522050925752656 -0.02561418362955538 0.05966671327469108 -0.01205298189930458 -0.01677934919319436 0.1473060822307646 0.02748894650433426 -0.01267001823755753 0.4784022262172142 0.02099100581596337 0.01797972496659226 0.1471643907732085 0.05522050925752656 -0.02561418362955539 0.478402226217214 0.02099100581596337 0.01877061670383269 -0.02374522037412984
18.8 0.01676692704708124 -0.003247744474666046 0.4572793101509828 -0.1463725147353104 0.05508096877172772 0.005584892972022026 0.09290150808027661 0.105100588975728 0.4572793101509826 -0.1463725147353104 0.01676692704708127 -0.00324774447466606 0.06572153513710237 0.1239253962102088 0.05485816672903736 -0.007462284735262203 0.05508096877172768 0.005584892972022019 0.06572153513710235 0.1239253962102089 0.01676692704708134 -0.00324774447466613 0.4103180801346948 -0.2493358250967466 0.09290150808027661 0.105100588975728 0.05485816672903734 -0.007462284735262201 0.4103180801346948 -0.2493358250967466 0.01345178366296526 -0.01052269941885889
18.9 0.02167458158238048 0.009713315550868337 0.2991512442420136 -0.3758352262558742 0.06994075711242841 0.01638604829075053 0.1278156130661386 0.03255773042585984 0.2991512442420135 -0.3758352262558741 0.0216745815823805 0.009713315550868351 0.1165674815986654 0.0617159540775367 0.07183266506012899 -0.0005294472644597836 0.06994075711242846 0.0163860482907505 0.1165674815986655 0.06171595407753667 0.02167458158238053 0.009713315550868393 0.2023278245728541 -0.4356684928130163 0.1278156130661386 0.03255773042585986 0.07183266506012902 -0.0005294472644597932 0.2023278245728541 -0.4356684928130162 0.02371730906693562 -0.0012748475930319
19 0.03507751223421129 0.009725422107099865 0.04091494724769895 -0.4783516931958802 0.08550026816386855 0.00651513580400508 0.1169153060247262 -0.04185639776726242 0.04091494724769895 -0.4783516931958803 0.03507751223421141 0.009725422107099879 0.1234976174880378 -0.01301865168460147 0.08461559680384949 -0.0138904149745945 0.08550026816386858 0.006515135804005066 0.1234976174880378 -0.01301865168460146 0.03507751223421135 0.009725422107099875 -0.07337543456903194 -0.4744580285899409 0.1169153060247263 -0.04185639776726246 0.08461559680384949 -0.01389041497459449 -0.07337543456903192 -0.4744580285899409 0.03562322528537221 -0.007483416330134954
19.1 0.03975317791886157 -0.002412870768502502 -0.2304391963697917 -0.4215172345631487 0.08213199362197539 -0.01165688601194139 0.0691452846400722 -0.09479045357016273 -0.2304391963697916 -0.4215172345631486 0.03975317791886163 -0.002412870768502551 0.0896967176888573 -0.07563596572953382 0.07700650660818377 -0.03084712803194732 0.08213199362197537 -0.01165688601194139 0.08969671768885731 -0.07563596572953385 0.03975317791886163 -0.00241287076850253 -0.3240363659521862 -0.3546539662795564 0.0691452846400722 -0.09479045357016272 0.07700650660818377 -0.03084712803194734 -0.3240363659521862 -0.3546539662795564 0.03414592874690286 -0.02049860117192378
19.2 0.03029652178678062 -0.01089938515125888 -0.4261088117627774 -0.2240242132217339 0.06389518099366358 -0.01535673298182908 0.002684661510503211 -0.1104622052097755 -0.4261088117627773 -0.2240242132217338 0.03029652178678066 -0.01089938515125884 0.02900076245399325 -0.1066211140643334 0.05837506972233939 -0.03017904301001344 0.06389518099366358 -0.01535673298182909 0.02900076245399326 -0.1066211140643334 0.03029652178678062 -0.01089938515125888 -0.4672946581843876 -0.115720655044116 0.002684661510503207 -0.1104622052097755 0.05837506972233938 -0.03017904301001341 -0.4672946581843876 -0.115720655044116 0.0217793855170462 -0.02371358672896691
19.3 0.01929759779898231 -0.005116037209374669 -0.4796004016481288 0.05023962846883816 0.0536083131101483 0.0003427368388111765 -0.05698830376877064 -0.08566713592497779 -0.4796004016481286 0.05023962846883814 0.0192975977989824 -0.005116037209374678 -0.03474659858700197 -0.09684626389626012 0.05212168380099062 -0.01254188107127187 0.05360831311014827 0.0003427368388111279 -0.03474659858700196 -0.09684626389626012 0.01929759779898241 -0.005116037209374698 -0.4534984938407223 0.1639502412743866 -0.05698830376877061 -0.08566713592497774 0.05212168380099064 -0.01254188107127185 -0.4534984938407224 0.1639502412743866 0.01468612487398445 -0.01352364054996774
19.4 0.02091291749072949 0.006861332529894862 -0.3707442818263753 0.3080385616749384 0.0644811212803192 0.01576046677315467 -0.0881719357022278 -0.03477519957029059 -0.3707442818263754 0.3080385616749385 0.02091291749072949 0.00686133252989489 -0.07717071669422244 -0.05502985767318853 0.06637871955507728 -0.0002700087097552791 0.06448112128031919 0.01576046677315468 -0.07717071669422246 -0.05502985767318852 0.0209129174907295 0.006861332529894834 -0.2854272987681312 0.3884203072750544 -0.08817193570222782 -0.0347751995702906 0.06637871955507729 -0.0002700087097552694 -0.2854272987681312 0.3884203072750544 0.02169039689636409 -0.003735596945342288
19.5 0.03233039990800238 0.009393973099662015 -0.1376786835831531 0.4610336831451552 0.08282462375709521 0.01134789017637177 -0.08488758771658257 0.01963858265871406 -0.1376786835831531 0.4610336831451551 0.03233039990800235 0.009393973099661994 -0.08711601160265961 -0.001541752129532722 0.08310335977898289 -0.009084299940243283 0.08282462375709519 0.01134789017637178 -0.08711601160265962 -0.001541752129532718 0.03233039990800238 0.009393973099662008 -0.02171933581197428 0.4806617806311045 -0.08488758771658256 0.01963858265871405 0.08310335977898288 -0.00908429994024328 -0.02171933581197428 0.4806617806311045 0.03294660826263017 -0.006929826317976686
19.6 0.03850418321348975 -0.0001238962184846801 0.1399975104889991 0.4598643527596826 0.08558271324919087 -0.007298334391237773 -0.05397101114237683 0.05952527999864714 0.139997510488999 0.4598643527596824 0.03850418321348967 -0.0001238962184846315 -0.06685556126564018 0.04456975353874126 0.08122044381188526 -0.02794469536387793 0.08558271324919087 -0.007298334391237761 -0.0668555612656402 0.04456975353874126 0.03850418321348964 -0.0001238962184846315 0.2478957909016126 0.411852161261129 -0.05397101114237683 0.05952527999864714 0.08122044381188527 -0.02794469536387794 0.2478957909016126 0.411852161261129 0.03386765204337081 -0.01831855944882384
19.7 0.03188630433192408 -0.009023811773252732 0.3712765192914973 0.3058707406793363 0.06929720262662288 -0.01688006118363273 -0.008513668705230484 0.07335405657184071 0.3712765192914973 0.3058707406793363 0.03188630433192409 -0.009023811773252718 -0.02622855215880044 0.06903161031020724 0.06304836152896111 -0.03334580732193823 0.06929720262662285 -0.01688006118363273 -0.02622855215880043 0.06903161031020724 0.03188630433192406 -0.009023811773252746 0.4349072580751333 0.2055695518662842 -0.008513668705230477 0.07335405657184069 0.06304836152896111 -0.03334580732193823 0.4349072580751333 0.2055695518662842 0.02376969858616336 -0.02309040952408856
19.8 0.02145645476958222 -0.005894398447991615 0.4789388625559651 0.04854112881086271 0.05426257509214414 -0.005284241400265635 0.03314889827102163 0.05802833592191603 0.4789388625559653 0.04854112881086273 0.02145645476958219 -0.005894398447991635 0.0178383265319174 0.06440443566238245 0.05129029624606624 -0.01848393285525645 0.05426257509214415 -0.005284241400265628 0.01783832653191741 0.06440443566238246 0.02145645476958231 -0.005894398447991615 0.4761434866906428 -0.07089467776012641 0.03314889827102164 0.05802833592191606 0.05129029624606622 -0.01848393285525645 0.4761434866906428 -0.07089467776012642 0.01604050623350139 -0.01542159343634176
19.9 0.02093317668224717 0.004748718527836648 0.4246757227655201 -0.2254311075744667 0.05949956080214205 0.0130109069148094 0.05432259345033473 0.02381454267167265 0.4246757227655202 -0.2254311075744667 0.02093317668224709 0.00474871852783669 0.04673943903706726 0.03651713899433446 0.06086866366063266 -0.00211830558758876 0.05949956080214208 0.01301090691480941 0.04673943903706723 0.03651713899433447 0.02093317668224713 0.004748718527836579 0.3556781385032997 -0.323514629591144 0.05432259345033477 0.02381454267167264 0.06086866366063265 -0.002118305587588767 0.3556781385032998 -0.323514629591144 0.02064641686254514 -0.005871429502668511
20 0.03052613875865123 0.008694039028199547 0.2277590283768574 -0.4218425859257205 0.07838134819079663 0.01490388358413539 0.0507974018681376 -0.01160492579556173 0.2277590283768574 -0.4218425859257204 0.03052613875865121 0.008694039028199547 0.05208753576521692 0.001392464427126552 0.07962529913102245 -0.005056997962383433 0.0783813481907966 0.0149038835841354 0.05208753576521689 0.001392464427126556 0.03052613875865123 0.00869403902819952 0.1156955745856442 -0.4652309924424282 0.05079740186813758 -0.01160492579556171 0.07962529913102245 -0.00505699796238343 0.1156955745856442 -0.4652309924424283 0.03093864455477083 -0.007087435026145693
